
#######################################################################
#
#                 Cambridge Crystallographic Data Centre
#                                CCDC
#
#######################################################################
#
# If this CIF has been generated from an entry in the Cambridge
# Structural Database, then it will include bibliographic, chemical,
# crystal, experimental, refinement or atomic coordinate data resulting
# from the CCDC's data processing and validation procedures.
#
#######################################################################

data_CSD_CIF_ZADXEL03
_audit_creation_date 2020-12-03
_audit_creation_method CSD-ConQuest-V1
_database_code_CSD ZADXEL03
_database_code_depnum_ccdc_archive 'CCDC 2001359'
_chemical_formula_sum 'C6 H13 K1 N2 O7'
_chemical_formula_moiety
;
(C6 H5 K1 O7 2-)n,2(H4 N1 1+)
;
_journal_coeditor_code "hb4336"
_journal_coden_Cambridge 1959
_journal_volume 5
_journal_year 2020
_journal_page_first x200612
_journal_name_full 'IUCrData '
loop_
_publ_author_name
"N.V.Patel"
"J.T.Golab"
"J.A.Kaduk"
_chemical_name_systematic
;
catena-[bis(ammonium) citrato-potassium]
;
_cell_volume   1072.610
_exptl_crystal_density_diffrn 1.637
_exptl_special_details
;
powder data
DFT optimised structure

;
_diffrn_ambient_temperature 300
_symmetry_cell_setting monoclinic
_symmetry_space_group_name_H-M 'P 21/c'
_symmetry_Int_Tables_number 14
loop_
_symmetry_equiv_pos_site_id
_symmetry_equiv_pos_as_xyz
1 x,y,z
2 -x,1/2+y,1/2-z
3 -x,-y,-z
4 x,-1/2-y,-1/2+z
_cell_length_a 6.0238
_cell_length_b 13.2926
_cell_length_c 13.4156
_cell_angle_alpha 90
_cell_angle_beta 93.131
_cell_angle_gamma 90
_cell_formula_units_Z 4
loop_
_atom_type_symbol
_atom_type_radius_bond
C 0.68
H 0.23
K 2.03
N 0.68
O 0.68
loop_
_atom_site_label
_atom_site_type_symbol
_atom_site_fract_x
_atom_site_fract_y
_atom_site_fract_z
C1 C 0.87318 0.03565 0.86687
C2 C 0.72599 0.08314 0.94344
C3 C 0.76903 0.19496 0.96828
C4 C 0.63480 0.22315 1.05833
C5 C 0.63310 0.33416 1.08863
C6 C 0.68765 0.25946 0.87689
H1 H 0.75607 0.03931 1.01180
H2 H 0.55188 0.07301 0.91973
H3 H 0.46410 0.19855 1.04385
H4 H 0.70341 0.18054 1.12249
O1 O 0.80347 -0.04262 0.82266
O2 O 0.44391 0.37143 1.10579
O3 O 0.81343 0.38194 1.09793
O4 O 0.48252 0.26029 0.85377
O5 O 0.83050 0.30870 0.83032
O6 O 0.99968 0.21047 0.99448
O7 O 1.06265 0.07558 0.85523
H5 H 1.07924 0.17143 0.94538
K1 K 0.13783 0.25540 1.19900
N1 N 0.37168 0.98204 0.74458
H6 H 0.30306 0.91502 0.71752
H7 H 0.25619 1.01594 0.78942
H8 H 0.40466 1.03125 0.68656
H9 H 0.52233 0.96762 0.78341
H10 H 0.78800 0.60364 0.00308
H11 H 0.95796 0.62600 0.10404
N2 N 0.81121 0.59136 0.07827
H12 H 0.68536 0.63002 0.11046
H13 H 0.80797 0.51452 0.09426
O1B O 0.19653 0.04262 1.17734
O3* O -0.18657 0.38194 1.09793
O4C O 0.48252 0.23971 1.35377
O5C O -0.16950 0.19130 1.33032
O6* O -0.00032 0.21047 0.99448
O7C O 0.06265 0.42442 1.35523
K1* K 1.13783 0.25540 1.19900
K1B K 0.86217 -0.25540 0.80100
K1C K 0.13783 0.24460 0.69900
K1C* K 1.13783 0.24460 0.69900
#END
