
#######################################################################
#
#                 Cambridge Crystallographic Data Centre
#                                CCDC
#
#######################################################################
#
# If this CIF has been generated from an entry in the Cambridge
# Structural Database, then it will include bibliographic, chemical,
# crystal, experimental, refinement or atomic coordinate data resulting
# from the CCDC's data processing and validation procedures.
#
#######################################################################

data_CSD_CIF_ZADXEL
_audit_creation_date 2020-10-19
_audit_creation_method CSD-ConQuest-V1
_database_code_CSD ZADXEL
_database_code_depnum_ccdc_archive 'CCDC 2011589'
_chemical_formula_sum 'C6 H13 K1 N2 O7'
_chemical_formula_moiety
;
(C6 H5 K1 O7 2-)n,2(H4 N1 1+)
;
_journal_coeditor_code "cu3164"
_journal_coden_Cambridge 1777
_journal_volume 76
_journal_year 2020
_journal_page_first 706
_journal_name_full 'Acta Crystallogr.,Sect.C:Cryst.Struct.Chem. '
loop_
_publ_author_name
"D.Gonzalez"
"J.T.Golab"
"A.J.Cigler"
"J.A.Kaduk"
_chemical_name_systematic
;
catena-[bis(ammonium) citrato-potassium]
;
_cell_volume   1045.756
_exptl_crystal_density_diffrn 1.679
_exptl_special_details
;
powder data

;
_diffrn_ambient_temperature 304
#These two values have been output from a single CSD field.
_refine_ls_R_factor_gt 0.0951
_refine_ls_wR_factor_gt 0.0951
_symmetry_cell_setting monoclinic
_symmetry_space_group_name_H-M 'P 21/c'
_symmetry_Int_Tables_number 14
loop_
_symmetry_equiv_pos_site_id
_symmetry_equiv_pos_as_xyz
1 x,y,z
2 -x,1/2+y,1/2-z
3 -x,-y,-z
4 x,-1/2-y,-1/2+z
_cell_length_a 5.952(5)
_cell_length_b 13.261(9)
_cell_length_c 13.266(7)
_cell_angle_alpha 90
_cell_angle_beta 92.88(5)
_cell_angle_gamma 90
_cell_formula_units_Z 4
loop_
_atom_type_symbol
_atom_type_radius_bond
C 0.68
H 0.23
K 2.03
N 0.68
O 0.68
loop_
_atom_site_label
_atom_site_type_symbol
_atom_site_fract_x
_atom_site_fract_y
_atom_site_fract_z
C1 C 0.88640 0.03730 0.85830
C2 C 0.75700 0.08120 0.94220
C3 C 0.79310 0.19420 0.96080
C4 C 0.66920 0.22650 1.05270
C5 C 0.65560 0.33900 1.07210
C6 C 0.70430 0.25400 0.86790
H1 H 0.77670 0.04320 0.99960
H2 H 0.57450 0.06940 0.92620
H3 H 0.50370 0.20020 1.04630
H4 H 0.71580 0.19530 1.10950
O1 O 0.80800 -0.03900 0.81450
O2 O 0.47350 0.37350 1.09710
O3 O 0.82650 0.39030 1.06390
O4 O 0.49800 0.25950 0.85270
O5 O 0.84460 0.29290 0.81590
O6 O 1.02580 0.21300 0.97840
O7 O 1.06080 0.08060 0.83620
H5 H 1.08650 0.16790 0.93840
K1 K 0.15860 0.25840 1.19320
N1 N 0.82540 0.59910 0.07430
H6 H 0.93790 0.61560 0.05380
H7 H 0.90790 0.60060 0.13800
H8 H 0.69960 0.62600 0.08460
H9 H 0.79170 0.52180 0.07060
N2 N 0.36780 0.97550 0.74130
H10 H 0.30840 0.91370 0.72030
H11 H 0.26010 1.01030 0.77260
H12 H 0.38690 1.01050 0.67920
H13 H 0.50180 0.97670 0.76900
O1B O 0.19200 0.03900 1.18550
O3* O -0.17350 0.39030 1.06390
O4C O 0.49800 0.24050 1.35270
O5C O -0.15540 0.20710 1.31590
O6* O 0.02580 0.21300 0.97840
O7C O 0.06080 0.41940 1.33620
K1* K 1.15860 0.25840 1.19320
K1B K 0.84140 -0.25840 0.80680
K1C K 0.15860 0.24160 0.69320
K1C* K 1.15860 0.24160 0.69320
#END
