
#######################################################################
#
#                 Cambridge Crystallographic Data Centre
#                                CCDC
#
#######################################################################
#
# If this CIF has been generated from an entry in the Cambridge
# Structural Database, then it will include bibliographic, chemical,
# crystal, experimental, refinement or atomic coordinate data resulting
# from the CCDC's data processing and validation procedures.
#
#######################################################################

data_CSD_CIF_ZAFWUB
_audit_creation_date 2016-01-06
_audit_creation_method CSD-ConQuest-V1
_database_code_CSD ZAFWUB
_database_code_depnum_ccdc_archive 'CCDC 1411423'
_chemical_formula_sum 'C41 H75 N6 O43 Tb6'
_chemical_formula_moiety
;
(C24 H20 O32 Tb6 1-)n,n(C2 H8 N1 1+),6n(H2 O1),5n(C3 H7 N1 O1)
;
_journal_coden_Cambridge 179
_journal_volume 54
_journal_year 2015
_journal_page_first 14353
_journal_name_full 'Angew.Chem.,Int.Ed. '
loop_
_publ_author_name
"A.H.Assen"
"Y.Belmabkhout"
"K.Adil"
"P.M.Bhatt"
"Dong-Xu Xue"
"Hao Jiang"
"M.Eddaoudi"
_chemical_name_systematic
;
catena-[dimethylammonium 
hexakis(\m-fumarato)-octakis(\m-hydroxo)-hexa-terbium N,N-dimethylformamide 
solvate hexahydrate]
;
_cell_volume   6503.286
_exptl_crystal_colour 'colorless'
_exptl_crystal_description 'cube'
_diffrn_ambient_temperature 150
_refine_special_details
;
Solvent molecules and dimethylammonium counterions have not been modelled; 
The coordination of the water molecules is unclear.
;
#These two values have been output from a single CSD field.
_refine_ls_R_factor_gt 0.052
_refine_ls_wR_factor_gt 0.052
_symmetry_cell_setting cubic
_symmetry_space_group_name_H-M 'P n -3'
_symmetry_Int_Tables_number 201
loop_
_symmetry_equiv_pos_site_id
_symmetry_equiv_pos_as_xyz
1 x,y,z
2 1/2-x,1/2-y,z
3 x,1/2-y,1/2-z
4 1/2-x,y,1/2-z
5 z,x,y
6 y,z,x
7 1/2-z,1/2-x,y
8 1/2-y,z,1/2-x
9 z,1/2-x,1/2-y
10 1/2-y,1/2-z,x
11 1/2-z,x,1/2-y
12 y,1/2-z,1/2-x
13 -x,-y,-z
14 -1/2+x,-1/2+y,-z
15 -x,-1/2+y,-1/2+z
16 -1/2+x,-y,-1/2+z
17 -z,-x,-y
18 -y,-z,-x
19 -1/2+z,-1/2+x,-y
20 -1/2+y,-z,-1/2+x
21 -z,-1/2+x,-1/2+y
22 -1/2+y,-1/2+z,-x
23 -1/2+z,-x,-1/2+y
24 -y,-1/2+z,-1/2+x
_cell_length_a 18.6657(6)
_cell_length_b 18.6657(6)
_cell_length_c 18.6657(6)
_cell_angle_alpha 90
_cell_angle_beta 90
_cell_angle_gamma 90
_cell_formula_units_Z 4
loop_
_atom_type_symbol
_atom_type_radius_bond
C 0.68
H 0.23
O 0.68
Tb 1.94
loop_
_atom_site_label
_atom_site_type_symbol
_atom_site_fract_x
_atom_site_fract_y
_atom_site_fract_z
Tb1 Tb 0.01230(3) 0.51310(4) 0.64743(3)
O1 O 0.0683(4) 0.5798(4) 0.5557(4)
O2 O -0.0672(4) 0.5672(4) 0.5672(4)
O3 O 0.1321(5) 0.5237(5) 0.6882(5)
O4 O 0.2084(5) 0.5227(4) 0.5957(5)
O5 O 0.0072(5) 0.6321(6) 0.6900(6)
O6 O -0.0108(5) 0.7104(5) 0.5966(5)
C1 C 0.1915(8) 0.5236(8) 0.6624(9)
C2 C 0.0002(10) 0.7543(10) 0.7129(10)
H1 H 0.00060 0.80070 0.69490
C3 C 0.2522(10) 0.5279(9) 0.7139(10)
H2 H 0.29790 0.53080 0.69430
C4 C -0.0005(8) 0.6937(10) 0.6599(9)
O3C O 0.3679(5) 0.5237(5) 0.8118(5)
C1C C 0.3085(8) 0.5236(8) 0.8376(9)
C3C C 0.2478(10) 0.5279(9) 0.7861(10)
H2C H 0.20210 0.53080 0.80570
O4C O 0.2916(5) 0.5227(4) 0.9043(5)
O5B O 0.0072(5) 0.8679(6) 0.8100(6)
O6B O -0.0108(5) 0.7896(5) 0.9034(5)
C2B C 0.0002(10) 0.7457(10) 0.7871(10)
H1B H 0.00060 0.69930 0.80510
C4B C -0.0005(8) 0.8063(10) 0.8401(9)
Tb1B Tb 0.01230(3) 0.98690(4) 0.85257(3)
O1B O 0.0683(4) 0.9202(4) 0.9443(4)
O2B O -0.0672(4) 0.9328(4) 0.9328(4)
O3B O 0.1321(5) 0.9763(5) 0.8118(5)
O4B O 0.2084(5) 0.9773(4) 0.9043(5)
C1B C 0.1915(8) 0.9764(8) 0.8376(9)
C3B C 0.2522(10) 0.9721(9) 0.7861(10)
H2B H 0.29790 0.96920 0.80570
O3A O 0.3679(5) 0.9763(5) 0.6882(5)
C1A C 0.3085(8) 0.9764(8) 0.6624(9)
C3A C 0.2478(10) 0.9721(9) 0.7139(10)
H2A H 0.20210 0.96920 0.69430
O4A O 0.2916(5) 0.9773(4) 0.5957(5)
Tb1C Tb 0.48770(3) 0.51310(4) 0.85257(3)
O1C O 0.4317(4) 0.5798(4) 0.9443(4)
O5C O 0.4928(5) 0.6321(6) 0.8100(6)
O6C O 0.5108(5) 0.7104(5) 0.9034(5)
C2C C 0.4998(10) 0.7543(10) 0.7871(10)
H1C H 0.49940 0.80070 0.80510
C4C C 0.5005(8) 0.6937(10) 0.8401(9)
O5A O 0.4928(5) 0.8679(6) 0.6900(6)
O6A O 0.5108(5) 0.7896(5) 0.5966(5)
C2A C 0.4998(10) 0.7457(10) 0.7129(10)
H1A H 0.49940 0.69930 0.69490
C4A C 0.5005(8) 0.8063(10) 0.6599(9)
Tb1P Tb 0.35257(3) 0.98770(4) 0.48690(3)
O1P O 0.4443(4) 0.9317(4) 0.4202(4)
O3P O 0.3118(5) 0.8679(5) 0.4763(5)
O4P O 0.4043(5) 0.7916(4) 0.4773(5)
O5P O 0.3100(5) 0.9928(6) 0.3679(6)
O6P O 0.4034(5) 1.0108(5) 0.2896(5)
C1P C 0.3376(8) 0.8085(8) 0.4764(9)
C2P C 0.2871(10) 0.9998(10) 0.2457(10)
H1P H 0.30510 0.99940 0.19930
C3P C 0.2861(10) 0.7478(9) 0.4721(10)
H2P H 0.30570 0.70210 0.46920
C4P C 0.3401(8) 1.0005(10) 0.3063(9)
O3R O 0.1882(5) 0.6321(5) 0.4763(5)
C1R C 0.1624(8) 0.6915(8) 0.4764(9)
C3R C 0.2139(10) 0.7522(9) 0.4721(10)
H2R H 0.19430 0.79790 0.46920
O4R O 0.0957(5) 0.7084(4) 0.4773(5)
O5V O 0.1900(5) 0.9928(6) 0.1321(6)
O6V O 0.0966(5) 1.0108(5) 0.2104(5)
C2V C 0.2129(10) 0.9998(10) 0.2543(10)
H1V H 0.19490 0.99940 0.30070
C4V C 0.1599(8) 1.0005(10) 0.1937(9)
Tb1Q Tb 0.48690(3) 0.35257(4) 0.98770(3)
O1Q O 0.4202(4) 0.4443(4) 0.9317(4)
Tb1T Tb 0.35257(3) 0.51230(4) 1.01310(3)
O1T O 0.4443(4) 0.5683(4) 1.0798(4)
Tb1A Tb 0.48770(3) 0.98690(4) 0.64743(3)
Tb1E Tb 0.51310(3) 0.64743(4) 1.01230(3)
Tb1F Tb -0.14743(3) 0.48770(4) 0.51310(3)
Tb1G Tb -0.01310(3) 0.64743(4) 0.48770(3)
Tb1I Tb -0.01310(3) 0.85257(4) 1.01230(3)
Tb1J Tb -0.14743(3) 1.01230(4) 0.98690(3)
Tb1K Tb 0.51310(3) 0.85257(4) 0.48770(3)
Tb1M Tb 0.51230(3) 1.01310(4) 0.35257(3)
Tb1N Tb -0.01230(3) 1.01310(4) 0.14743(3)
Tb1O Tb 0.51230(3) 0.48690(4) 1.14743(3)
Tb1R Tb 0.14743(3) 0.51230(4) 0.48690(3)
Tb1V Tb 0.14743(3) 0.98770(4) 0.01310(3)
Tb1V* Tb 0.14743(3) 0.98770(4) 1.01310(3)
O1A O 0.4317(4) 0.9202(4) 0.5557(4)
O1F O -0.0557(4) 0.4317(4) 0.5798(4)
O1H O 0.5557(4) 0.4317(4) 0.9202(4)
O1J O -0.0557(4) 1.0683(4) 0.9202(4)
O1O O 0.5683(4) 0.4202(4) 1.0557(4)
O1S O 0.0798(4) 0.4443(4) 0.5683(4)
O1U O 0.0798(4) 1.0557(4) 0.9317(4)
O1W O 0.4202(4) 1.0557(4) 0.5683(4)
O2C O 0.5672(4) 0.5672(4) 0.9328(4)
O2M O 0.4328(4) 1.0672(4) 0.4328(4)
O2O O 0.4328(4) 0.4328(4) 1.0672(4)
O3Q O 0.4763(5) 0.3118(5) 0.8679(5)
O3T O 0.3118(5) 0.6321(5) 1.0237(5)
O4H O 0.5957(5) 0.2916(4) 0.9773(5)
O4Q O 0.4773(5) 0.4043(4) 0.7916(5)
O4S O 0.0227(5) 0.4043(4) 0.7084(5)
O4U O 0.0227(5) 1.0957(4) 0.7916(5)
O5Q O 0.3679(5) 0.3100(6) 0.9928(6)
O5T O 0.3100(5) 0.5072(6) 1.1321(6)
O6F O -0.0966(5) 0.5108(5) 0.7104(5)
O6H O 0.5966(5) 0.5108(5) 0.7896(5)
O6J O -0.0966(5) 0.9892(5) 0.7896(5)
O6O O 0.4892(5) 0.2896(5) 1.0966(5)
O6Q O 0.2896(5) 0.4034(5) 1.0108(5)
O6W O 0.2896(5) 1.0966(5) 0.4892(5)
#END
