
#######################################################################
#
#                 Cambridge Crystallographic Data Centre
#                                CCDC
#
#######################################################################
#
# If this CIF has been generated from an entry in the Cambridge
# Structural Database, then it will include bibliographic, chemical,
# crystal, experimental, refinement or atomic coordinate data resulting
# from the CCDC's data processing and validation procedures.
#
#######################################################################

data_CSD_CIF_ZAFXAI
_audit_creation_date 2016-01-06
_audit_creation_method CSD-ConQuest-V1
_database_code_CSD ZAFXAI
_database_code_depnum_ccdc_archive 'CCDC 1411424'
_chemical_formula_sum 'C41 H75 N6 O43 Y6'
_chemical_formula_moiety
;
(C24 H32 O38 Y6 1-)n,n(C2 H8 N1 1+),5n(C3 H7 N1 O1)
;
_journal_coden_Cambridge 179
_journal_volume 54
_journal_year 2015
_journal_page_first 14353
_journal_name_full 'Angew.Chem.,Int.Ed. '
loop_
_publ_author_name
"A.H.Assen"
"Y.Belmabkhout"
"K.Adil"
"P.M.Bhatt"
"Dong-Xu Xue"
"Hao Jiang"
"M.Eddaoudi"
_chemical_name_systematic
;
catena-[dimethylammonium 
hexakis(\m-fumarato)-octakis(\m-hydroxo)-hexaaqua-hexa-yttrium 
N,N-dimethylformamide solvate]
;
_cell_volume   6367.938
_exptl_crystal_colour 'colorless'
_exptl_crystal_description 'cubic'
_diffrn_ambient_temperature 150
_refine_special_details
;
Solvent molecules and dimethylammonium counterions have not been modelled.

;
#These two values have been output from a single CSD field.
_refine_ls_R_factor_gt 0.0477
_refine_ls_wR_factor_gt 0.0477
_symmetry_cell_setting cubic
_symmetry_space_group_name_H-M 'P n -3'
_symmetry_Int_Tables_number 201
loop_
_symmetry_equiv_pos_site_id
_symmetry_equiv_pos_as_xyz
1 x,y,z
2 1/2-x,1/2-y,z
3 1/2-x,y,1/2-z
4 x,1/2-y,1/2-z
5 z,x,y
6 z,1/2-x,1/2-y
7 1/2-z,1/2-x,y
8 1/2-z,x,1/2-y
9 y,z,x
10 1/2-y,z,1/2-x
11 y,1/2-z,1/2-x
12 1/2-y,1/2-z,x
13 -x,-y,-z
14 -1/2+x,-1/2+y,-z
15 -1/2+x,-y,-1/2+z
16 -x,-1/2+y,-1/2+z
17 -z,-x,-y
18 -z,-1/2+x,-1/2+y
19 -1/2+z,-1/2+x,-y
20 -1/2+z,-x,-1/2+y
21 -y,-z,-x
22 -1/2+y,-z,-1/2+x
23 -y,-1/2+z,-1/2+x
24 -1/2+y,-1/2+z,-x
_cell_length_a 18.5353(9)
_cell_length_b 18.5353(9)
_cell_length_c 18.5353(9)
_cell_angle_alpha 90
_cell_angle_beta 90
_cell_angle_gamma 90
_cell_formula_units_Z 4
loop_
_atom_type_symbol
_atom_type_radius_bond
C 0.68
H 0.23
O 0.68
Y 1.90
loop_
_atom_site_label
_atom_site_type_symbol
_atom_site_fract_x
_atom_site_fract_y
_atom_site_fract_z
Y1 Y 0.98683(3) 0.48770(3) 0.85358(3)
O1 O 0.9329(2) 0.5671(2) 0.9329(2)
O2 O 1.0674(2) 0.5555(2) 0.92040(19)
O3 O 0.9761(3) 0.2911(4) 0.9056(4)
O4 O 0.7897(4) 0.5100(3) 0.9044(3)
O5 O 0.8691(4) 0.4932(3) 0.8114(3)
O6 O 0.9758(3) 0.3700(3) 0.8112(3)
C1 C 0.9766(5) 0.3090(6) 0.8380(6)
C2 C 0.7446(7) 0.5014(8) 0.7855(7)
H1 H 0.69760 0.50140 0.80290
C3 C 0.9750(7) 0.2457(8) 0.7853(7)
H2 H 0.97390 0.19910 0.80380
C4 C 0.8062(6) 0.5013(6) 0.8387(6)
O7 O 0.9759(17) 0.4782(17) 0.7199(17)
O5B O 0.6309(4) 0.4932(3) 0.6886(3)
C2B C 0.7554(7) 0.5014(8) 0.7145(7)
H1B H 0.80240 0.50140 0.69710
C4B C 0.6938(6) 0.5013(6) 0.6613(6)
O4B O 0.7103(4) 0.5100(3) 0.5956(3)
O6C O 0.9758(3) 0.1300(3) 0.6888(3)
C1C C 0.9766(5) 0.1910(6) 0.6620(6)
C3C C 0.9750(7) 0.2543(8) 0.7147(7)
H2C H 0.97390 0.30090 0.69620
O3C O 0.9761(3) 0.2089(4) 0.5944(4)
Y1B Y 0.51317(3) 0.48770(3) 0.64642(3)
O1B O 0.5671(2) 0.5671(2) 0.5671(2)
O2B O 0.4326(2) 0.5555(2) 0.57960(19)
O3B O 0.5239(3) 0.2911(4) 0.5944(4)
O6B O 0.5242(3) 0.3700(3) 0.6888(3)
C1B C 0.5234(5) 0.3090(6) 0.6620(6)
C3B C 0.5250(7) 0.2457(8) 0.7147(7)
H2B H 0.52610 0.19910 0.69620
O7B O 0.5241(17) 0.4782(17) 0.7801(17)
O6A O 0.5242(3) 0.1300(3) 0.8112(3)
C1A C 0.5234(5) 0.1910(6) 0.8380(6)
C3A C 0.5250(7) 0.2543(8) 0.7853(7)
H2A H 0.52610 0.30090 0.80380
O3A O 0.5239(3) 0.2089(4) 0.9056(4)
Y1C Y 0.98683(3) 0.01230(3) 0.64642(3)
O2C O 1.0674(2) -0.0555(2) 0.57960(19)
O4C O 0.7897(4) -0.0100(3) 0.5956(3)
O5C O 0.8691(4) 0.0068(3) 0.6886(3)
C2C C 0.7446(7) -0.0014(8) 0.7145(7)
H1C H 0.69760 -0.00140 0.69710
C4C C 0.8062(6) -0.0013(6) 0.6613(6)
O7C O 0.9759(17) 0.0218(17) 0.7801(17)
O5A O 0.6309(4) 0.0068(3) 0.8114(3)
C2A C 0.7554(7) -0.0014(8) 0.7855(7)
H1A H 0.80240 -0.00140 0.80290
C4A C 0.6938(6) -0.0013(6) 0.8387(6)
O4A O 0.7103(4) -0.0100(3) 0.9044(3)
Y1P Y 1.14642(3) 0.01317(3) 0.51230(3)
O2P O 1.0796(2) -0.0674(2) 0.44450(19)
O3P O 1.0944(3) 0.0239(4) 0.7089(4)
O4P O 1.0956(4) 0.2103(3) 0.4900(3)
O5P O 1.1886(4) 0.1309(3) 0.5068(3)
O6P O 1.1888(3) 0.0242(3) 0.6300(3)
C1P C 1.1620(5) 0.0234(6) 0.6910(6)
C2P C 1.2145(7) 0.2554(8) 0.4986(7)
H1P H 1.19710 0.30240 0.49860
C3P C 1.2147(7) 0.0250(8) 0.7543(7)
H2P H 1.19620 0.02610 0.80090
C4P C 1.1613(6) 0.1938(6) 0.4987(6)
O7P O 1.2801(17) 0.0241(17) 0.5218(17)
O5R O 1.3114(4) 0.3691(3) 0.5068(3)
C2R C 1.2855(7) 0.2446(8) 0.4986(7)
H1R H 1.30290 0.19760 0.49860
C4R C 1.3387(6) 0.3062(6) 0.4987(6)
O4R O 1.4044(4) 0.2897(3) 0.4900(3)
O6S O 1.3112(3) 0.0242(3) 0.8700(3)
C1S C 1.3380(5) 0.0234(6) 0.8090(6)
C3S C 1.2853(7) 0.0250(8) 0.7457(7)
H2S H 1.30380 0.02610 0.69910
O3S O 1.4056(3) 0.0239(4) 0.7911(4)
Y1Q Y 1.14642(3) 0.48683(3) 0.98770(3)
O2Q O 1.0796(2) 0.5674(2) 1.05550(19)
O7Q O 1.2801(17) 0.4759(17) 0.9782(17)
Y1R Y 1.35358(3) 0.48683(3) 0.51230(3)
O2R O 1.4204(2) 0.5674(2) 0.44450(19)
O7R O 1.2199(17) 0.4759(17) 0.5218(17)
Y1A Y 0.51317(3) 0.01230(3) 0.85358(3)
Y1A* Y 1.51317(3) 0.01230(3) 0.85358(3)
Y1D Y 0.85358(3) -0.01317(3) 0.48770(3)
Y1E Y 0.85358(3) 0.51317(3) 1.01230(3)
Y1F Y 0.64642(3) 0.51317(3) 0.48770(3)
Y1G Y 0.64642(3) -0.01317(3) 1.01230(3)
Y1I Y 1.01230(3) -0.14642(3) 0.51317(3)
Y1J Y 0.48770(3) 0.64642(3) 0.51317(3)
Y1J* Y 1.48770(3) 0.64642(3) 0.51317(3)
Y1K Y 1.01230(3) 0.64642(3) 0.98683(3)
Y1L Y 1.01317(3) 0.51230(3) 1.14642(3)
Y1N Y 1.48683(3) 0.51230(3) 0.35358(3)
Y1O Y 1.01317(3) -0.01230(3) 0.35358(3)
Y1R* Y 0.35358(3) 0.48683(3) 0.51230(3)
Y1S Y 1.35358(3) 0.01317(3) 0.98770(3)
Y1T Y 0.51230(3) 0.14642(3) 1.01317(3)
Y1U Y 0.98770(3) 0.14642(3) 0.48683(3)
Y1V Y 0.51230(3) 0.35358(3) 0.48683(3)
Y1V* Y 1.51230(3) 0.35358(3) 0.48683(3)
Y1W Y 0.98770(3) 0.35358(3) 1.01317(3)
O1C O 0.9329(2) -0.0671(2) 0.5671(2)
O1L O 1.0671(2) 0.4329(2) 1.0671(2)
O1N O 1.4329(2) 0.4329(2) 0.4329(2)
O1O O 1.0671(2) 0.0671(2) 0.4329(2)
O2B* O 1.4326(2) 0.5555(2) 0.57960(19)
O2D O 0.9204(2) 0.0674(2) 0.55550(19)
O2E O 0.9204(2) 0.4326(2) 0.94450(19)
O2F O 0.5796(2) 0.4326(2) 0.55550(19)
O2U O 1.0555(2) 0.0796(2) 0.56740(19)
O2V O 0.4445(2) 0.4204(2) 0.56740(19)
O2V* O 1.4445(2) 0.4204(2) 0.56740(19)
O2W O 1.0555(2) 0.4204(2) 0.93260(19)
O3I O 1.2089(3) -0.0944(4) 0.5239(4)
O3J O 1.2911(3) 0.5944(4) 0.5239(4)
O3K O 1.2089(3) 0.5944(4) 0.9761(4)
O3Q O 1.0944(3) 0.4761(4) 0.7911(4)
O3R O 0.4056(3) 0.4761(4) 0.7089(4)
O4I O 0.9900(4) -0.0956(3) 0.7103(3)
O4J O 0.5100(4) 0.5956(3) 0.7103(3)
O4K O 0.9900(4) 0.5956(3) 0.7897(3)
O4L O 1.2103(4) 0.4900(3) 1.0956(3)
O4N O 1.2897(4) 0.4900(3) 0.4044(3)
O4O O 1.2103(4) 0.0100(3) 0.4044(3)
O5Q O 1.1886(4) 0.3691(3) 0.9932(3)
O6Q O 1.1888(3) 0.4758(3) 0.8700(3)
O6R O 1.3112(3) 0.4758(3) 0.6300(3)
#END
