
#######################################################################
#
#                 Cambridge Crystallographic Data Centre
#                                CCDC
#
#######################################################################
#
# If this CIF has been generated from an entry in the Cambridge
# Structural Database, then it will include bibliographic, chemical,
# crystal, experimental, refinement or atomic coordinate data resulting
# from the CCDC's data processing and validation procedures.
#
#######################################################################

data_CSD_CIF_ZAGZEQ
_audit_creation_date 2020-10-20
_audit_creation_method CSD-ConQuest-V1
_database_code_CSD ZAGZEQ
_database_code_depnum_ccdc_archive 'CCDC 2025400'
_chemical_formula_sum 'C66 H113 Co3 Ho3 N30 O49'
_chemical_formula_moiety
;
(C54 H29 Co3 Ho3 N24 O30 4-)n,19(H2 O1),4(C2 H8 N1 1+),2(C2 H7 N1)
;
_journal_coden_Cambridge 1350
_journal_volume 22
_journal_year 2020
_journal_page_first 7639
_journal_name_full 'CrystEngComm '
loop_
_publ_author_name
"Han Wei"
"Cui-Li Wang"
"Wei Gao"
"Jie-Ping Liu"
"Xiu-Mei Zhang"
_chemical_name_systematic
;
catena-[tetrakis(dimethylammonium) 
hexakis(\m-5-(2H-tetrazol-2-ido-5-yl)benzene-1,3-dicarboxylato)-(\m-hydroxido)
-pentaaqua-tri-cobalt(ii)-tri-holmium(iii) dimethylamine solvate 
nonadecahydrate]
;
_cell_volume  11983.014
_exptl_crystal_colour 'colorless'
_exptl_crystal_density_diffrn 1.542
_exptl_special_details
;
The paper suggests there are 22 water molecules in total, however, the 
formula given in the CIF is more consistent with there being 24 water 
molecules and this number has been presented here. A water molecule 
coordinated to Gd(1) was disordered by symmetry and has been supressed. The 
amount of uncoordinated water molecules has been increased by 1 to reflect 
this
;
_exptl_crystal_description 'block'
_diffrn_ambient_temperature 298
_refine_special_details
;
The structure is disordered by symmetry. Co3,O16 and H20A,H20B disordered 
over two sites with occupancies 0.4328:0.0672; N10',N11',N12' and N10,N11,N12 
disordered over two sites with occupancies 0.518:0.482; O10,O9 and O10',O9' 
disordered over two sites with occupancies 0.962:0.038; O17,O18 and 
Co3',O19,O20 disordered over two sites with occupancies 0.866:0.134; O21 
disordered by symmetry over two configurations with occupancy 0.5; O8' and O8 
disordered over two sites with occupancies 0.638:0.362; Disordered cation and 
solvent molecules (dimethylammonium, dimethylamine and water) were not 
modelled and the disordered density was taken into account using the 
SQUEEZE/PLATON procedure.
;
#These two values have been output from a single CSD field.
_refine_ls_R_factor_gt 0.0469
_refine_ls_wR_factor_gt 0.0469
_symmetry_cell_setting monoclinic
_symmetry_space_group_name_H-M 'C 2/m'
_symmetry_Int_Tables_number 12
loop_
_symmetry_equiv_pos_site_id
_symmetry_equiv_pos_as_xyz
1 x,y,z
2 -x,y,-z
3 1/2+x,1/2+y,z
4 1/2-x,1/2+y,-z
5 -x,-y,-z
6 x,-y,z
7 -1/2-x,-1/2-y,-z
8 -1/2+x,-1/2-y,z
_cell_length_a 28.330(12)
_cell_length_b 33.266(15)
_cell_length_c 13.650(6)
_cell_angle_alpha 90
_cell_angle_beta 111.329(6)
_cell_angle_gamma 90
_cell_formula_units_Z 4
loop_
_atom_type_symbol
_atom_type_radius_bond
C 0.68
H 0.23
Co 1.26
Ho 1.92
N 0.68
O 0.68
loop_
_atom_site_label
_atom_site_type_symbol
_atom_site_fract_x
_atom_site_fract_y
_atom_site_fract_z
Ho1 Ho 0.50000 0.71498(2) 1.00000
Ho2 Ho 0.40355(2) 0.77798(2) 0.17225(2)
Co1 Co 0.36159(5) 0.50000 0.60843(11)
Co2 Co 0.23554(5) 0.50000 0.50804(11)
N1 N 0.3373(2) 0.42504(19) 0.7375(5)
N2 N 0.3215(2) 0.45545(18) 0.6663(5)
N3 N 0.2727(2) 0.45549(17) 0.6239(5)
N4 N 0.2537(2) 0.42569(18) 0.6649(5)
N5 N 0.1608(3) 0.43534(19) 0.3716(5)
N6 N 0.2051(3) 0.45327(19) 0.3989(5)
N7 N 0.2305(3) 0.4368(3) 0.3490(8)
N8 N 0.2039(3) 0.4060(3) 0.2901(8)
N9 N 0.4124(3) 0.58196(18) 0.5945(5)
N10 N 0.4007(6) 0.5426(3) 0.5620(9)
N11 N 0.4023(6) 0.5434(3) 0.4622(9)
N12 N 0.4126(7) 0.5825(3) 0.4407(10)
O1 O 0.42217(19) 0.31063(16) 0.9809(4)
O2 O 0.3779(2) 0.27567(15) 1.0592(4)
O3 O 0.1891(2) 0.27569(17) 0.8877(5)
O4 O 0.1525(2) 0.32887(16) 0.8004(5)
O5 O 0.1075(2) 0.30949(15) -0.0121(4)
O6 O 0.0514(2) 0.27028(18) 0.0181(5)
O7 O -0.0447(2) 0.33262(17) 0.2257(4)
O8 O 0.4762(2) 0.70702(18) 0.8261(4)
O9 O 0.5171(2) 0.75157(19) 0.7701(5)
O10 O 0.0090(5) 0.3565(5) 0.3854(11)
O11 O 0.4241(2) 0.77711(16) 0.3665(4)
O12 O 0.3930(3) 0.72220(19) 0.2724(4)
O13 O 0.2995(3) 0.50000 0.4669(6)
O14 O 0.4242(3) 0.50000 0.7493(7)
H1 H 0.42100 0.48060 0.78680
O15 O 0.1725(3) 0.50000 0.5490(7)
H2 H 0.16930 0.52100 0.58150
C1 C 0.3811(3) 0.3006(2) 0.9912(6)
C2 C 0.1916(3) 0.3089(2) 0.8469(6)
C3 C 0.2946(3) 0.4076(2) 0.7338(6)
C4 C 0.3336(3) 0.3202(2) 0.9215(6)
C5 C 0.2863(3) 0.3058(2) 0.9177(6)
H3 H 0.28450 0.28370 0.95800
C6 C 0.2422(3) 0.3248(2) 0.8531(6)
C7 C 0.2453(3) 0.3579(2) 0.7954(6)
H4 H 0.21570 0.37100 0.75460
C8 C 0.2919(3) 0.3725(2) 0.7963(6)
C9 C 0.3362(3) 0.3532(2) 0.8624(6)
H5 H 0.36760 0.36280 0.86640
C10 C 0.0801(3) 0.3002(2) 0.0395(5)
C11 C -0.0043(4) 0.3482(3) 0.2825(8)
C12 C 0.1606(3) 0.4061(3) 0.3047(7)
C13 C 0.0803(3) 0.3273(2) 0.1255(5)
C14 C 0.0402(3) 0.3249(2) 0.1630(6)
H6 H 0.01430 0.30630 0.13410
C15 C 0.0394(3) 0.3502(3) 0.2433(7)
C16 C 0.0783(3) 0.3768(3) 0.2857(7)
H7 H 0.07710 0.39440 0.33770
C17 C 0.1191(3) 0.3783(2) 0.2539(6)
C18 C 0.1188(3) 0.3539(2) 0.1703(6)
H8 H 0.14500 0.35580 0.14490
C19 C 0.4874(3) 0.7229(2) 0.7542(5)
C20 C 0.4147(3) 0.7401(3) 0.3605(6)
C21 C 0.4104(4) 0.6090(3) 0.5194(7)
C22 C 0.4631(3) 0.7065(2) 0.6467(5)
C23 C 0.4534(3) 0.7305(2) 0.5587(5)
H9 H 0.46280 0.75750 0.56570
C24 C 0.4290(3) 0.7134(3) 0.4581(6)
C25 C 0.4170(4) 0.6743(3) 0.4469(6)
H10 H 0.40200 0.66350 0.37990
C26 C 0.4266(4) 0.6498(3) 0.5350(6)
C27 C 0.4493(3) 0.6664(2) 0.6338(6)
H11 H 0.45550 0.65030 0.69290
Co3 Co 0.3572(4) 0.50000 0.3702(9)
O16 O 0.409(2) 0.50000 0.292(5)
H12 H 0.42090 0.47670 0.29190
O17 O 0.3072(17) 0.4593(13) 0.265(3)
O18 O 0.2866(7) 0.4341(4) 0.1977(9)
H13 H 0.30900 0.44130 0.17300
H14 H 0.25780 0.43830 0.15260
O19 O 0.2402(4) 0.50000 0.2094(7)
H15 H 0.20980 0.50000 0.20580
H16 H 0.24460 0.50000 0.15080
N13? N 0.3820(5) 0.5520(4) 0.5335(10)
N14? N 0.3496(6) 0.5652(4) 0.436(1)
N15? N 0.3628(5) 0.6046(4) 0.4328(10)
O20? O -0.0143(9) 0.3839(9) 0.319(2)
O21? O 0.058(6) 0.244(5) 0.056(11)
O22? O 0.540(7) 0.751(6) 0.779(16)
H17? H 0.30000 0.52400 0.44640
H18? H 0.27830 0.46080 0.27070
H19? H 0.31910 0.43660 0.28970
Co4? Co 0.29354(9) 0.46901(7) 0.33089(18)
H20? H 0.33370 0.51370 0.24110
H21? H 0.36240 0.51680 0.34350
O23? O 0.4974(10) 0.6428(3) 1.0178(16)
H22? H 0.51620 0.63960 1.08100
H23? H 0.46730 0.63740 1.01180
O24? O 0.3500(4) 0.50000 0.2945(9)
H24? H 0.43280 0.51660 0.31670
H1E H 0.42100 0.51940 0.78680
H2E H 0.16930 0.47900 0.58150
H12E H 0.42090 0.52330 0.29190
Ho2A Ho 0.59645(2) 0.77798(2) 0.82775(2)
N9A N 0.5876(3) 0.58196(18) 0.4055(5)
N10A N 0.5993(6) 0.5426(3) 0.4380(9)
N11A N 0.5977(6) 0.5434(3) 0.5378(9)
N12A N 0.5874(7) 0.5825(3) 0.5593(10)
O8A O 0.5238(2) 0.70702(18) 0.1739(4)
O9A O 0.4829(2) 0.75157(19) 0.2299(5)
O11A O 0.5759(2) 0.77711(16) 0.6335(4)
O12A O 0.6070(3) 0.72220(19) 0.7276(4)
C19A C 0.5126(3) 0.7229(2) 0.2458(5)
C20A C 0.5853(3) 0.7401(3) 0.6395(6)
C21A C 0.5896(4) 0.6090(3) 0.4806(7)
C22A C 0.5369(3) 0.7065(2) 0.3533(5)
C23A C 0.5466(3) 0.7305(2) 0.4413(5)
H9A H 0.53720 0.75750 0.43430
C24A C 0.5710(3) 0.7134(3) 0.5419(6)
C25A C 0.5830(4) 0.6743(3) 0.5531(6)
H10A H 0.59800 0.66350 0.62010
C26A C 0.5734(4) 0.6498(3) 0.4650(6)
C27A C 0.5507(3) 0.6664(2) 0.3662(6)
H11A H 0.54450 0.65030 0.30710
N1E N 0.3373(2) 0.57496(19) 0.7375(5)
N2E N 0.3215(2) 0.54455(18) 0.6663(5)
N3E N 0.2727(2) 0.54451(17) 0.6239(5)
N4E N 0.2537(2) 0.57431(18) 0.6649(5)
O1E O 0.42217(19) 0.68937(16) 0.9809(4)
O2E O 0.3779(2) 0.72433(15) 1.0592(4)
O3E O 0.1891(2) 0.72431(17) 0.8877(5)
O4E O 0.1525(2) 0.67113(16) 0.8004(5)
C1E C 0.3811(3) 0.6994(2) 0.9912(6)
C2E C 0.1916(3) 0.6911(2) 0.8469(6)
C3E C 0.2946(3) 0.5924(2) 0.7338(6)
C4E C 0.3336(3) 0.6798(2) 0.9215(6)
C5E C 0.2863(3) 0.6942(2) 0.9177(6)
H3E H 0.28450 0.71630 0.95800
C6E C 0.2422(3) 0.6752(2) 0.8531(6)
C7E C 0.2453(3) 0.6421(2) 0.7954(6)
H4E H 0.21570 0.62900 0.75460
C8E C 0.2919(3) 0.6275(2) 0.7963(6)
C9E C 0.3362(3) 0.6468(2) 0.8624(6)
H5E H 0.36760 0.63720 0.86640
N5C N 0.3392(3) 0.93534(19) 0.6284(5)
N6C N 0.2949(3) 0.95327(19) 0.6011(5)
N7C N 0.2695(3) 0.9368(3) 0.6510(8)
N8C N 0.2961(3) 0.9060(3) 0.7099(8)
O5C O 0.3925(2) 0.80949(15) 1.0121(4)
O6C O 0.4486(2) 0.77028(18) 0.9819(5)
O7C O 0.5447(2) 0.83262(17) 0.7743(4)
O10C O 0.4910(5) 0.8565(5) 0.6146(11)
C10C C 0.4199(3) 0.8002(2) 0.9605(5)
C11C C 0.5043(4) 0.8482(3) 0.7175(8)
C12C C 0.3394(3) 0.9061(3) 0.6953(7)
C13C C 0.4197(3) 0.8273(2) 0.8745(5)
C14C C 0.4598(3) 0.8249(2) 0.8370(6)
H6C H 0.48570 0.80630 0.86590
C15C C 0.4606(3) 0.8502(3) 0.7567(7)
C16C C 0.4217(3) 0.8768(3) 0.7143(7)
H7C H 0.42290 0.89440 0.66230
C17C C 0.3809(3) 0.8783(2) 0.7461(6)
C18C C 0.3812(3) 0.8539(2) 0.8297(6)
H8C H 0.35500 0.85580 0.85510
O17E O 0.3072(17) 0.5407(13) 0.265(3)
Ho1* Ho 0.50000 0.71498(2) 0.00000
Ho1B Ho 0.00000 0.21498(2) 0.00000
Ho1D Ho 0.50000 0.28502(2) 1.00000
Ho2* Ho 0.40355(2) 0.77798(2) 1.17225(2)
Ho2B Ho -0.09645(2) 0.27798(2) 0.17225(2)
Ho2C Ho 0.09645(2) 0.27798(2) -0.17225(2)
Ho2C* Ho 0.09645(2) 0.27798(2) 0.82775(2)
Ho2E Ho 0.40355(2) 0.22202(2) 1.17225(2)
Ho2F Ho 0.09645(2) 0.72202(2) 0.82775(2)
Co1A Co 0.63841(5) 0.50000 0.39157(11)
Co2C Co 0.26446(5) 1.00000 0.49196(11)
N6E N 0.2051(3) 0.54673(19) 0.3989(5)
N10E N 0.4007(6) 0.4574(3) 0.5620(9)
N11E N 0.4023(6) 0.4566(3) 0.4622(9)
O1D O 0.57783(19) 0.68937(16) 1.0191(4)
O2D O 0.6221(2) 0.72433(15) 0.9408(4)
O2E* O 0.3779(2) 0.72433(15) 0.0592(4)
O3B O 0.6891(2) 0.77569(17) 0.8877(5)
O3C O 0.3109(2) 0.77569(17) 0.1123(5)
O4B O 0.6525(2) 0.82887(16) 0.8004(5)
O4C O 0.3475(2) 0.82887(16) 0.1996(5)
O5B O 0.6075(2) 0.80949(15) 0.9879(4)
O5C* O 0.3925(2) 0.80949(15) 0.0121(4)
O6B O 0.5514(2) 0.77028(18) 1.0181(5)
O7B O 0.4553(2) 0.83262(17) 0.2257(4)
O8A* O 0.5238(2) 0.70702(18) 1.1739(4)
Co3A Co 0.6428(4) 0.50000 0.6298(9)
#END
