
#######################################################################
#
#                 Cambridge Crystallographic Data Centre
#                                CCDC
#
#######################################################################
#
# If this CIF has been generated from an entry in the Cambridge
# Structural Database, then it will include bibliographic, chemical,
# crystal, experimental, refinement or atomic coordinate data resulting
# from the CCDC's data processing and validation procedures.
#
#######################################################################

data_CSD_CIF_ZAGZAM
_audit_creation_date 2020-10-20
_audit_creation_method CSD-ConQuest-V1
_database_code_CSD ZAGZAM
_database_code_depnum_ccdc_archive 'CCDC 2025399'
_chemical_formula_sum 'C66 H113 Co3 Gd3 N30 O49'
_chemical_formula_moiety
;
(C54 H29 Co3 Gd3 N24 O30 4-)n,19(H2 O1),4(C2 H8 N1 1+),2(C2 H7 N1)
;
_journal_coden_Cambridge 1350
_journal_volume 22
_journal_year 2020
_journal_page_first 7639
_journal_name_full 'CrystEngComm '
loop_
_publ_author_name
"Han Wei"
"Cui-Li Wang"
"Wei Gao"
"Jie-Ping Liu"
"Xiu-Mei Zhang"
_chemical_name_systematic
;
catena-[tetrakis(dimethylammonium) 
hexakis(\m-5-(2H-tetrazol-2-ido-5-yl)benzene-1,3-dicarboxylato)-(\m-hydroxido)
-pentaaqua-tri-cobalt(ii)-tri-gadolinium(iii) dimethylamine solvate 
nonadecahydrate]
;
_cell_volume  11976.345
_exptl_crystal_density_diffrn 1.53
_exptl_special_details
;
The paper suggests there are 22 water molecules in total, however, the 
formula given in the CIF is more consistent with there being 24 water 
molecules and this number has been presented here. A water molecule 
coordinated to Gd(1) was disordered by symmetry and has been supressed. The 
amount of uncoordinated water molecules has been increased by 1 to reflect 
this
;
_diffrn_ambient_temperature 298
_refine_special_details
;
The structure is disordered by symmetry. Co3,O16 and H20A,H20B disordered 
over two sites with occupancies 0.4281:0.0719; N10,N11,N12 and N10',N11',N12' 
disordered over two sites with occupancies 0.523:0.477; O10,O9 and O10',O9' 
disordered over two sites with occupancies 0.691:0.309; O17,O18 and 
Co3',O19,O20 disordered over two sites with occupancies 0.856:0.144; O21 
disordered by symmetry over two configurations with occupancy 0.5; O8' and O8 
disordered over two sites with occupancies 0.622:0.378; Disordered cation and 
solvent molecules (dimethylammonium, dimethylamine and water) were not 
modelled and the disordered density was taken into account using the 
SQUEEZE/PLATON procedure.
;
#These two values have been output from a single CSD field.
_refine_ls_R_factor_gt 0.0524
_refine_ls_wR_factor_gt 0.0524
_symmetry_cell_setting monoclinic
_symmetry_space_group_name_H-M 'C 2/m'
_symmetry_Int_Tables_number 12
loop_
_symmetry_equiv_pos_site_id
_symmetry_equiv_pos_as_xyz
1 x,y,z
2 -x,y,-z
3 1/2+x,1/2+y,z
4 1/2-x,1/2+y,-z
5 -x,-y,-z
6 x,-y,z
7 -1/2-x,-1/2-y,-z
8 -1/2+x,-1/2-y,z
_cell_length_a 28.145(5)
_cell_length_b 33.446(6)
_cell_length_c 13.581(2)
_cell_angle_alpha 90
_cell_angle_beta 110.479(2)
_cell_angle_gamma 90
_cell_formula_units_Z 4
loop_
_atom_type_symbol
_atom_type_radius_bond
C 0.68
H 0.23
Co 1.26
Gd 1.96
N 0.68
O 0.68
loop_
_atom_site_label
_atom_site_type_symbol
_atom_site_fract_x
_atom_site_fract_y
_atom_site_fract_z
Gd1 Gd 0.50000 0.72028(2) 1.00000
Gd2 Gd 0.40549(2) 0.77734(2) 0.17185(3)
Co1 Co 0.36472(6) 0.50000 0.61143(12)
Co2 Co 0.23797(6) 0.50000 0.51093(11)
N1 N 0.3395(2) 0.42510(17) 0.7371(5)
N2 N 0.3261(2) 0.45518(17) 0.6677(5)
N3 N 0.2751(3) 0.45589(18) 0.6260(5)
N4 N 0.2546(2) 0.42550(18) 0.6641(5)
N5 N 0.1625(3) 0.43556(19) 0.3737(5)
N6 N 0.2074(3) 0.4536(2) 0.4004(6)
N7 N 0.2337(4) 0.4383(3) 0.3468(9)
N8 N 0.2071(4) 0.4077(3) 0.2901(8)
N9 N 0.4146(3) 0.58142(19) 0.5989(6)
N10 N 0.3871(5) 0.5505(3) 0.5380(9)
N11 N 0.3525(6) 0.5628(4) 0.442(1)
N12 N 0.3649(5) 0.6022(4) 0.4345(11)
O1 O 0.4204(2) 0.30851(18) 0.9761(6)
O2 O 0.3754(2) 0.27616(15) 1.0563(4)
O3 O 0.1887(2) 0.27395(17) 0.8770(5)
O4 O 0.1523(2) 0.32797(17) 0.7932(5)
O5 O 0.1138(3) 0.31220(17) -0.0093(4)
O6 O 0.0526(2) 0.27603(15) 0.0042(5)
O7 O -0.0419(2) 0.33260(18) 0.2251(5)
O8 O 0.4764(4) 0.7066(4) 0.8260(7)
O9 O 0.5141(5) 0.7530(3) 0.7664(9)
O10 O 0.0089(5) 0.3587(5) 0.3782(10)
O11 O 0.4261(2) 0.77517(18) 0.3686(4)
O12 O 0.3963(3) 0.72044(19) 0.2751(5)
O13 O 0.3050(4) 0.50000 0.4697(7)
O14 O 0.4254(3) 0.50000 0.7525(8)
H1 H 0.42220 0.48060 0.78990
O15 O 0.1741(3) 0.50000 0.5522(7)
H2 H 0.17100 0.52100 0.58470
C1 C 0.3810(3) 0.2994(2) 0.9887(6)
C2 C 0.1918(3) 0.3085(2) 0.8394(6)
C3 C 0.2965(3) 0.4072(2) 0.7326(6)
C4 C 0.3331(3) 0.3195(2) 0.9181(6)
C5 C 0.2846(3) 0.3054(2) 0.9111(6)
H3 H 0.28200 0.28330 0.95040
C6 C 0.2409(3) 0.3241(2) 0.8464(6)
C7 C 0.2444(3) 0.3583(2) 0.7907(7)
H4 H 0.21500 0.37180 0.75080
C8 C 0.2923(3) 0.3726(2) 0.7946(7)
C9 C 0.3367(3) 0.3525(2) 0.8589(6)
H5 H 0.36840 0.36150 0.86160
C10 C 0.0842(3) 0.3040(2) 0.0366(6)
C11 C -0.0004(5) 0.3491(3) 0.2810(9)
C12 C 0.1625(3) 0.4078(3) 0.3074(7)
C13 C 0.0831(3) 0.3294(2) 0.1262(6)
C14 C 0.0431(3) 0.3281(3) 0.1599(6)
H6 H 0.01620 0.31100 0.12750
C15 C 0.0419(4) 0.3519(3) 0.2412(7)
C16 C 0.0823(3) 0.3778(3) 0.2900(7)
H7 H 0.08180 0.39350 0.34600
C17 C 0.1226(3) 0.3800(3) 0.2558(7)
C18 C 0.1210(3) 0.3557(2) 0.1717(6)
H8 H 0.14720 0.35770 0.14520
C19 C 0.4839(4) 0.7243(3) 0.7554(7)
C20 C 0.4173(4) 0.7380(3) 0.3639(7)
C21 C 0.4114(5) 0.6083(3) 0.5209(8)
C22 C 0.4616(3) 0.7068(2) 0.6493(6)
C23 C 0.4524(3) 0.7309(3) 0.5603(6)
H9 H 0.46070 0.75790 0.56720
C24 C 0.4307(3) 0.7136(3) 0.4606(6)
C25 C 0.4209(4) 0.6737(3) 0.4499(8)
H10 H 0.40770 0.66260 0.38300
C26 C 0.4304(5) 0.6485(3) 0.5393(7)
C27 C 0.4498(4) 0.6653(3) 0.6381(7)
H11 H 0.45520 0.64950 0.69740
Co3 Co 0.3649(4) 0.50000 0.3781(9)
O16 O 0.3147(17) 0.4621(13) 0.266(3)
O17 O 0.406(2) 0.50000 0.275(4)
O18 O 0.2922(7) 0.4334(5) 0.2043(10)
H12 H 0.31460 0.44060 0.17960
H13 H 0.26340 0.43750 0.15920
O19 O 0.2461(4) 0.50000 0.2113(8)
H14 H 0.21570 0.50000 0.20770
H15 H 0.25050 0.50000 0.15270
N13? N 0.4043(6) 0.5423(3) 0.5684(11)
N14? N 0.4071(8) 0.5440(4) 0.4684(12)
N15? N 0.4220(6) 0.5818(4) 0.4494(12)
O20? O -0.0182(9) 0.3865(8) 0.3107(16)
O21? O 0.4402(11) 0.7253(8) 0.8102(16)
O22? O 0.5139(13) 0.742(1) 0.8082(19)
H16? H 0.28580 0.46360 0.27170
H17? H 0.32660 0.43940 0.29070
H18? H 0.42950 0.51660 0.29940
H19? H 0.41760 0.47670 0.27450
O23? O 0.4970(8) 0.6487(4) 1.0446(13)
H20? H 0.46690 0.64320 1.03850
H21? H 0.51580 0.64550 1.10770
Co4? Co 0.2979(1) 0.47002(8) 0.33457(19)
H22? H 0.36730 0.51680 0.34880
H23? H 0.33860 0.51370 0.24640
H24? H 0.30550 0.52400 0.44920
O24? O 0.3549(4) 0.50000 0.2998(11)
H1E H 0.42220 0.51940 0.78990
H2E H 0.17100 0.47900 0.58470
Gd2A Gd 0.59451(2) 0.77734(2) 0.82815(3)
N9A N 0.5854(3) 0.58142(19) 0.4011(6)
N10A N 0.6129(5) 0.5505(3) 0.4620(9)
N11A N 0.6475(6) 0.5628(4) 0.558(1)
N12A N 0.6351(5) 0.6022(4) 0.5655(11)
O8A O 0.5236(4) 0.7066(4) 0.1740(7)
O9A O 0.4859(5) 0.7530(3) 0.2336(9)
O11A O 0.5739(2) 0.77517(18) 0.6314(4)
O12A O 0.6037(3) 0.72044(19) 0.7249(5)
C19A C 0.5161(4) 0.7243(3) 0.2446(7)
C20A C 0.5827(4) 0.7380(3) 0.6361(7)
C21A C 0.5886(5) 0.6083(3) 0.4791(8)
C22A C 0.5384(3) 0.7068(2) 0.3507(6)
C23A C 0.5476(3) 0.7309(3) 0.4397(6)
H9A H 0.53930 0.75790 0.43280
C24A C 0.5693(3) 0.7136(3) 0.5394(6)
C25A C 0.5791(4) 0.6737(3) 0.5501(8)
H10A H 0.59230 0.66260 0.61700
C26A C 0.5696(5) 0.6485(3) 0.4607(7)
C27A C 0.5502(4) 0.6653(3) 0.3619(7)
H11A H 0.54480 0.64950 0.30260
N1E N 0.3395(2) 0.57490(17) 0.7371(5)
N2E N 0.3261(2) 0.54482(17) 0.6677(5)
N3E N 0.2751(3) 0.54411(18) 0.6260(5)
N4E N 0.2546(2) 0.57450(18) 0.6641(5)
O1E O 0.4204(2) 0.69149(18) 0.9761(6)
O2E O 0.3754(2) 0.72384(15) 1.0563(4)
O3E O 0.1887(2) 0.72605(17) 0.8770(5)
O4E O 0.1523(2) 0.67203(17) 0.7932(5)
C1E C 0.3810(3) 0.7006(2) 0.9887(6)
C2E C 0.1918(3) 0.6915(2) 0.8394(6)
C3E C 0.2965(3) 0.5928(2) 0.7326(6)
C4E C 0.3331(3) 0.6805(2) 0.9181(6)
C5E C 0.2846(3) 0.6946(2) 0.9111(6)
H3E H 0.28200 0.71670 0.95040
C6E C 0.2409(3) 0.6759(2) 0.8464(6)
C7E C 0.2444(3) 0.6417(2) 0.7907(7)
H4E H 0.21500 0.62820 0.75080
C8E C 0.2923(3) 0.6274(2) 0.7946(7)
C9E C 0.3367(3) 0.6475(2) 0.8589(6)
H5E H 0.36840 0.63850 0.86160
N5C N 0.3375(3) 0.93556(19) 0.6263(5)
N6C N 0.2926(3) 0.9536(2) 0.5996(6)
N7C N 0.2663(4) 0.9383(3) 0.6532(9)
N8C N 0.2929(4) 0.9077(3) 0.7099(8)
O5C O 0.3862(3) 0.81220(17) 1.0093(4)
O6C O 0.4474(2) 0.77603(15) 0.9958(5)
O7C O 0.5419(2) 0.83260(18) 0.7749(5)
O10C O 0.4911(5) 0.8587(5) 0.6218(10)
C10C C 0.4158(3) 0.8040(2) 0.9634(6)
C11C C 0.5004(5) 0.8491(3) 0.7190(9)
C12C C 0.3375(3) 0.9078(3) 0.6926(7)
C13C C 0.4169(3) 0.8294(2) 0.8738(6)
C14C C 0.4569(3) 0.8281(3) 0.8401(6)
H6C H 0.48380 0.81100 0.87250
C15C C 0.4581(4) 0.8519(3) 0.7588(7)
C16C C 0.4177(3) 0.8778(3) 0.7100(7)
H7C H 0.41820 0.89350 0.65400
C17C C 0.3774(3) 0.8800(3) 0.7442(7)
C18C C 0.3790(3) 0.8557(2) 0.8283(6)
H8C H 0.35280 0.85770 0.85480
O16E O 0.3147(17) 0.5379(13) 0.266(3)
Gd1* Gd 0.50000 0.72028(2) 0.00000
Gd1B Gd 0.00000 0.22028(2) 0.00000
Gd1D Gd 0.50000 0.27972(2) 1.00000
Gd2* Gd 0.40549(2) 0.77734(2) 1.17185(3)
Gd2B Gd -0.09451(2) 0.27734(2) 0.17185(3)
Gd2C Gd 0.09451(2) 0.27734(2) -0.17185(3)
Gd2C* Gd 0.09451(2) 0.27734(2) 0.82815(3)
Gd2E Gd 0.40549(2) 0.22266(2) 1.17185(3)
Gd2F Gd 0.09451(2) 0.72266(2) 0.82815(3)
Co1A Co 0.63528(6) 0.50000 0.38857(12)
Co2C Co 0.26203(6) 1.00000 0.48907(11)
N6E N 0.2074(3) 0.5464(2) 0.4004(6)
N10E N 0.3871(5) 0.4495(3) 0.5380(9)
N11E N 0.3525(6) 0.4372(4) 0.442(1)
O1D O 0.5796(2) 0.69149(18) 1.0239(6)
O2D O 0.6246(2) 0.72384(15) 0.9437(4)
O2E* O 0.3754(2) 0.72384(15) 0.0563(4)
O3B O 0.6887(2) 0.77395(17) 0.8770(5)
O3C O 0.3113(2) 0.77395(17) 0.1230(5)
O4B O 0.6523(2) 0.82797(17) 0.7932(5)
O4C O 0.3477(2) 0.82797(17) 0.2068(5)
O5B O 0.6138(3) 0.81220(17) 0.9907(4)
O5C* O 0.3862(3) 0.81220(17) 0.0093(4)
O6B O 0.5526(2) 0.77603(15) 1.0042(5)
O7B O 0.4581(2) 0.83260(18) 0.2251(5)
O8A* O 0.5236(4) 0.7066(4) 1.1740(7)
Co3A Co 0.6351(4) 0.50000 0.6219(9)
#END
