
#######################################################################
#
#                 Cambridge Crystallographic Data Centre
#                                CCDC
#
#######################################################################
#
# If this CIF has been generated from an entry in the Cambridge
# Structural Database, then it will include bibliographic, chemical,
# crystal, experimental, refinement or atomic coordinate data resulting
# from the CCDC's data processing and validation procedures.
#
#######################################################################

data_CSD_CIF_ZAHBAP
_audit_creation_date 2020-10-20
_audit_creation_method CSD-ConQuest-V1
_database_code_CSD ZAHBAP
_database_code_depnum_ccdc_archive 'CCDC 2025398'
_chemical_formula_sum 'C66 H113 Co3 Eu3 N30 O49'
_chemical_formula_moiety
;
(C54 H29 Co3 Eu3 N24 O30 4-)n,19(H2 O1),4(C2 H8 N1 1+),2(C2 H7 N1)
;
_journal_coden_Cambridge 1350
_journal_volume 22
_journal_year 2020
_journal_page_first 7639
_journal_name_full 'CrystEngComm '
loop_
_publ_author_name
"Han Wei"
"Cui-Li Wang"
"Wei Gao"
"Jie-Ping Liu"
"Xiu-Mei Zhang"
_chemical_name_systematic
;
catena-[tetrakis(dimethylammonium) 
hexakis(\m-5-(2H-tetrazol-2-ido-5-yl)benzene-1,3-dicarboxylato)-(\m-hydroxido)
-pentaaqua-tri-cobalt(ii)-tri-europium(iii) dimethylamine solvate 
nonadecahydrate]
;
_cell_volume  12002.593
_exptl_crystal_colour 'colorless'
_exptl_crystal_density_diffrn 1.518
_exptl_special_details
;
The paper suggests there are 22 water molecules in total, however, the 
formula given in the CIF is more consistent with there being 24 water 
molecules and this number has been presented here. A water molecule 
coordinated to Eu(1) was disordered by symmetry and has been supressed. The 
amount of uncoordinated water molecules has been increased by 1 to reflect 
this
;
_exptl_crystal_description 'block'
_diffrn_ambient_temperature 298
_refine_special_details
;
The structure is disordered by symmetry. Co3,O16 and H20A,H20B disordered 
over two sites with occupancies 0.3940:0.1060; N10',N11',N12' and N10,N11,N12 
disordered over two sites with occupancies 0.518:0.482; O10,O9 and O10',O9' 
disordered over two sites with occupancies 0.695:0.305; O17,O18 and 
Co3',O19,O20 disordered over two sites with occupancies 0.788:0.212; O21 
disordered by symmetry over two configurations with occupancy 0.5; O8 and O8' 
disordered over two sites with occupancies 0.68:0.32; Disordered cation and 
solvent molecules (dimethylammonium, dimethylamine and water) were not 
modelled and the disordered density was taken into account using the 
SQUEEZE/PLATON procedure.
;
#These two values have been output from a single CSD field.
_refine_ls_R_factor_gt 0.051
_refine_ls_wR_factor_gt 0.051
_symmetry_cell_setting monoclinic
_symmetry_space_group_name_H-M 'C 2/m'
_symmetry_Int_Tables_number 12
loop_
_symmetry_equiv_pos_site_id
_symmetry_equiv_pos_as_xyz
1 x,y,z
2 -x,y,-z
3 1/2+x,1/2+y,z
4 1/2-x,1/2+y,-z
5 -x,-y,-z
6 x,-y,z
7 -1/2-x,-1/2-y,-z
8 -1/2+x,-1/2-y,z
_cell_length_a 28.150(3)
_cell_length_b 33.160(4)
_cell_length_c 13.6800(14)
_cell_angle_alpha 90
_cell_angle_beta 109.960(4)
_cell_angle_gamma 90
_cell_formula_units_Z 4
loop_
_atom_type_symbol
_atom_type_radius_bond
C 0.68
H 0.23
Co 1.26
Eu 1.98
N 0.68
O 0.68
loop_
_atom_site_label
_atom_site_type_symbol
_atom_site_fract_x
_atom_site_fract_y
_atom_site_fract_z
Eu1 Eu 0.50000 0.72179(2) 1.00000
Eu2 Eu 0.40575(2) 0.77779(2) 0.17089(2)
Co1 Co 0.36643(5) 0.50000 0.61261(11)
Co2 Co 0.23999(5) 0.50000 0.51234(10)
N1 N 0.3412(2) 0.42507(15) 0.7361(4)
N2 N 0.3271(2) 0.45527(14) 0.6679(4)
N3 N 0.2772(2) 0.45548(15) 0.6251(4)
N4 N 0.2563(2) 0.42497(15) 0.6644(5)
N5 N 0.1639(2) 0.43625(16) 0.3736(5)
N6 N 0.2085(3) 0.45318(19) 0.4031(5)
N7 N 0.2361(4) 0.4383(3) 0.3507(8)
N8 N 0.2063(4) 0.4082(3) 0.2894(7)
N9 N 0.4179(3) 0.58160(18) 0.5995(5)
N10 N 0.4060(6) 0.5428(3) 0.5684(9)
N11 N 0.4071(6) 0.5448(3) 0.4681(10)
N12 N 0.4180(6) 0.5831(3) 0.4422(10)
O1 O 0.4208(2) 0.30680(15) 0.9723(5)
O2 O 0.37518(18) 0.27704(12) 1.0578(4)
O3 O 0.18765(19) 0.27370(13) 0.8762(4)
O4 O 0.1527(2) 0.32772(14) 0.7927(4)
O5 O 0.1208(2) 0.31248(15) -0.0054(4)
O6 O 0.05469(18) 0.27832(12) 0.0005(4)
O7 O -0.0434(2) 0.33421(15) 0.2184(5)
O8 O -0.0133(7) 0.3847(6) 0.3176(14)
O9 O 0.4804(4) 0.7066(3) 0.8281(7)
O10 O 0.5118(4) 0.7541(3) 0.7680(8)
O11 O 0.4289(2) 0.77619(16) 0.3703(4)
O12 O 0.3979(3) 0.72115(18) 0.2771(4)
O13 O 0.3054(4) 0.50000 0.4701(7)
O14 O 0.4266(3) 0.50000 0.7510(8)
H1 H 0.42340 0.48060 0.78850
O15 O 0.1769(3) 0.50000 0.5560(7)
H2 H 0.17370 0.52100 0.58860
C1 C 0.3794(3) 0.29990(18) 0.9878(5)
C2 C 0.1923(3) 0.3075(2) 0.8378(6)
C3 C 0.2970(3) 0.40675(19) 0.7331(5)
C4 C 0.3343(3) 0.31957(19) 0.9189(6)
C5 C 0.2863(3) 0.3049(2) 0.9091(5)
H3 H 0.28400 0.28190 0.94620
C6 C 0.2415(3) 0.3233(2) 0.8460(6)
C7 C 0.2467(3) 0.3575(2) 0.7893(6)
H4 H 0.21770 0.37110 0.74880
C8 C 0.2933(3) 0.37169(19) 0.7919(6)
C9 C 0.3370(3) 0.35308(18) 0.8592(5)
H5 H 0.36850 0.36330 0.86420
C10 C 0.0853(3) 0.30555(19) 0.0353(5)
C11 C -0.0068(4) 0.3560(3) 0.2616(8)
C12 C 0.1646(3) 0.4089(2) 0.3066(6)
C13 C 0.0840(2) 0.32971(17) 0.1243(5)
C14 C 0.0420(3) 0.33037(19) 0.1550(5)
H6 H 0.01520 0.31320 0.12210
C15 C 0.0382(3) 0.3557(2) 0.2335(6)
C16 C 0.0802(3) 0.3807(2) 0.2820(7)
H7 H 0.07920 0.39730 0.33610
C17 C 0.1215(3) 0.3818(2) 0.2540(6)
C18 C 0.1229(3) 0.3567(2) 0.1735(6)
H8 H 0.15080 0.35790 0.15170
C19 C 0.4835(3) 0.7245(2) 0.7578(7)
C20 C 0.4198(3) 0.7399(3) 0.3658(6)
C21 C 0.4121(5) 0.6085(3) 0.5196(7)
C22 C 0.4616(3) 0.7073(2) 0.6510(5)
C23 C 0.4536(3) 0.7316(2) 0.5638(6)
H9 H 0.46260 0.75870 0.57210
C24 C 0.4316(3) 0.7153(2) 0.4623(6)
C25 C 0.4221(4) 0.6736(3) 0.4534(6)
H10 H 0.40950 0.66190 0.38770
C26 C 0.4312(4) 0.6492(2) 0.5421(6)
C27 C 0.4509(3) 0.6667(2) 0.6398(6)
H11 H 0.45690 0.65070 0.69870
Co3 Co 0.3692(3) 0.50000 0.3795(5)
O16 O 0.4034(19) 0.50000 0.265(3)
O17 O 0.3261(12) 0.4561(8) 0.276(2)
O18 O 0.2936(8) 0.4343(5) 0.2024(10)
H12 H 0.31600 0.44150 0.17770
H13 H 0.26480 0.43850 0.15730
O19 O 0.2466(5) 0.50000 0.2161(8)
H14 H 0.21620 0.50000 0.21250
H15 H 0.25100 0.50000 0.15750
N13? N 0.3883(5) 0.5521(3) 0.5372(10)
N14? N 0.3544(6) 0.5641(3) 0.4407(10)
N15? N 0.3645(5) 0.6044(3) 0.4355(10)
O20? O 0.0096(15) 0.3620(11) 0.365(3)
O21? O 0.4445(9) 0.7250(7) 0.8125(15)
O22? O 0.5124(11) 0.7376(7) 0.807(2)
H16? H 0.30590 0.52400 0.44950
H17? H 0.29720 0.45760 0.28120
H18? H 0.33810 0.43340 0.30020
H19? H 0.42720 0.51660 0.28890
Co4? Co 0.29851(10) 0.46969(7) 0.33536(19)
H20? H 0.36820 0.51680 0.35020
H21? H 0.33950 0.51370 0.24780
O23? O 0.3558(4) 0.50000 0.3012(12)
O24? O 0.4964(5) 0.6530(3) 1.0625(11)
H22? H 0.51520 0.64980 1.12560
H23? H 0.46630 0.64750 1.05650
H24? H 0.41530 0.47670 0.26410
H1E H 0.42340 0.51940 0.78850
H2E H 0.17370 0.47900 0.58860
Eu2A Eu 0.59425(2) 0.77779(2) 0.82911(2)
N9A N 0.5821(3) 0.58160(18) 0.4005(5)
N10A N 0.5940(6) 0.5428(3) 0.4316(9)
N11A N 0.5929(6) 0.5448(3) 0.5319(10)
N12A N 0.5820(6) 0.5831(3) 0.5578(10)
O9A O 0.5196(4) 0.7066(3) 0.1719(7)
O10A O 0.4882(4) 0.7541(3) 0.2320(8)
O11A O 0.5711(2) 0.77619(16) 0.6297(4)
O12A O 0.6021(3) 0.72115(18) 0.7229(4)
C19A C 0.5165(3) 0.7245(2) 0.2422(7)
C20A C 0.5802(3) 0.7399(3) 0.6342(6)
C21A C 0.5879(5) 0.6085(3) 0.4804(7)
C22A C 0.5384(3) 0.7073(2) 0.3490(5)
C23A C 0.5464(3) 0.7316(2) 0.4362(6)
H9A H 0.53740 0.75870 0.42790
C24A C 0.5684(3) 0.7153(2) 0.5377(6)
C25A C 0.5779(4) 0.6736(3) 0.5466(6)
H10A H 0.59050 0.66190 0.61230
C26A C 0.5688(4) 0.6492(2) 0.4579(6)
C27A C 0.5491(3) 0.6667(2) 0.3602(6)
H11A H 0.54310 0.65070 0.30130
N1E N 0.3412(2) 0.57493(15) 0.7361(4)
N2E N 0.3271(2) 0.54473(14) 0.6679(4)
N3E N 0.2772(2) 0.54452(15) 0.6251(4)
N4E N 0.2563(2) 0.57503(15) 0.6644(5)
O1E O 0.4208(2) 0.69320(15) 0.9723(5)
O2E O 0.37518(18) 0.72296(12) 1.0578(4)
O3E O 0.18765(19) 0.72630(13) 0.8762(4)
O4E O 0.1527(2) 0.67228(14) 0.7927(4)
C1E C 0.3794(3) 0.70010(18) 0.9878(5)
C2E C 0.1923(3) 0.6925(2) 0.8378(6)
C3E C 0.2970(3) 0.59325(19) 0.7331(5)
C4E C 0.3343(3) 0.68043(19) 0.9189(6)
C5E C 0.2863(3) 0.6951(2) 0.9091(5)
H3E H 0.28400 0.71810 0.94620
C6E C 0.2415(3) 0.6767(2) 0.8460(6)
C7E C 0.2467(3) 0.6425(2) 0.7893(6)
H4E H 0.21770 0.62890 0.74880
C8E C 0.2933(3) 0.62831(19) 0.7919(6)
C9E C 0.3370(3) 0.64692(18) 0.8592(5)
H5E H 0.36850 0.63670 0.86420
N5C N 0.3361(2) 0.93625(16) 0.6264(5)
N6C N 0.2915(3) 0.95318(19) 0.5969(5)
N7C N 0.2639(4) 0.9383(3) 0.6493(8)
N8C N 0.2937(4) 0.9082(3) 0.7106(7)
O5C O 0.3792(2) 0.81248(15) 1.0054(4)
O6C O 0.44531(18) 0.77832(12) 0.9995(4)
O7C O 0.5434(2) 0.83421(15) 0.7816(5)
O8C O 0.5133(7) 0.8847(6) 0.6824(14)
C10C C 0.4147(3) 0.80555(19) 0.9647(5)
C11C C 0.5068(4) 0.8560(3) 0.7384(8)
C12C C 0.3354(3) 0.9089(2) 0.6934(6)
C13C C 0.4160(2) 0.82971(17) 0.8757(5)
C14C C 0.4580(3) 0.83037(19) 0.8450(5)
H6C H 0.48480 0.81320 0.87790
C15C C 0.4618(3) 0.8557(2) 0.7665(6)
C16C C 0.4198(3) 0.8807(2) 0.7180(7)
H7C H 0.42080 0.89730 0.66390
C17C C 0.3785(3) 0.8818(2) 0.7460(6)
C18C C 0.3771(3) 0.8567(2) 0.8265(6)
H8C H 0.34920 0.85790 0.84830
O17E O 0.3261(12) 0.5439(8) 0.276(2)
Eu1* Eu 0.50000 0.72179(2) 0.00000
Eu1B Eu 0.00000 0.22179(2) 0.00000
Eu1D Eu 0.50000 0.27821(2) 1.00000
Eu2* Eu 0.40575(2) 0.77779(2) 1.17089(2)
Eu2B Eu -0.09425(2) 0.27779(2) 0.17089(2)
Eu2C Eu 0.09425(2) 0.27779(2) -0.17089(2)
Eu2C* Eu 0.09425(2) 0.27779(2) 0.82911(2)
Eu2E Eu 0.40575(2) 0.22221(2) 1.17089(2)
Eu2F Eu 0.09425(2) 0.72221(2) 0.82911(2)
Co1A Co 0.63357(5) 0.50000 0.38739(11)
Co2C Co 0.26001(5) 1.00000 0.48766(10)
N6E N 0.2085(3) 0.54682(19) 0.4031(5)
N10E N 0.4060(6) 0.4572(3) 0.5684(9)
N11E N 0.4071(6) 0.4552(3) 0.4681(10)
O1D O 0.5792(2) 0.69320(15) 1.0277(5)
O2D O 0.62482(18) 0.72296(12) 0.9422(4)
O2E* O 0.37518(18) 0.72296(12) 0.0578(4)
O3B O 0.68765(19) 0.77370(13) 0.8762(4)
O3C O 0.31235(19) 0.77370(13) 0.1238(4)
O4B O 0.6527(2) 0.82772(14) 0.7927(4)
O4C O 0.3473(2) 0.82772(14) 0.2073(4)
O5B O 0.6208(2) 0.81248(15) 0.9946(4)
O5C* O 0.3792(2) 0.81248(15) 0.0054(4)
O6B O 0.55469(18) 0.77832(12) 1.0005(4)
O6C* O 0.44531(18) 0.77832(12) -0.0005(4)
O7B O 0.4566(2) 0.83421(15) 0.2184(5)
O9A* O 0.5196(4) 0.7066(3) 1.1719(7)
Co3A Co 0.6308(3) 0.50000 0.6205(5)
#END
