
#######################################################################
#
#                 Cambridge Crystallographic Data Centre
#                                CCDC
#
#######################################################################
#
# If this CIF has been generated from an entry in the Cambridge
# Structural Database, then it will include bibliographic, chemical,
# crystal, experimental, refinement or atomic coordinate data resulting
# from the CCDC's data processing and validation procedures.
#
#######################################################################

data_CSD_CIF_ZAHBET
_audit_creation_date 2020-10-20
_audit_creation_method CSD-ConQuest-V1
_database_code_CSD ZAHBET
_database_code_depnum_ccdc_archive 'CCDC 2025401'
_chemical_formula_sum 'C66 H113 Co3 N30 O49 Tb3'
_chemical_formula_moiety
;
(C54 H31 Co3 N24 O31 Tb3 4-)n,18(H2 O1),2(C2 H7 N1),4(C2 H8 N1 1+)
;
_journal_coden_Cambridge 1350
_journal_volume 22
_journal_year 2020
_journal_page_first 7639
_journal_name_full 'CrystEngComm '
loop_
_publ_author_name
"Han Wei"
"Cui-Li Wang"
"Wei Gao"
"Jie-Ping Liu"
"Xiu-Mei Zhang"
_chemical_name_systematic
;
catena-[tetrakis(dimethylammonium) 
hexakis(\m-5-(2H-tetrazol-2-ido-5-yl)benzene-1,3-dicarboxylato)-(\m-hydroxido)
-hexaaqua-tri-cobalt(ii)-tri-terbium(iii) dimethylamine solvate 
octadecahydrate]
;
_cell_volume  11565.618
_exptl_crystal_colour 'colorless'
_exptl_crystal_density_diffrn 1.588
_exptl_special_details
;
The paper suggests there are 22 water molecules in total, however, the 
formula given in the CIF is more consistent with there being 24 water 
molecules and this number has been presented here
;
_exptl_crystal_description 'block'
_diffrn_ambient_temperature 298
_refine_special_details
;
The structure is disordered by symmetry. C2',O4' and C2,O4 disordered over 
two sites with occupancies 0.531:0.469; Co3,Co4,O17,O18,O19,O20 and O21 
disordered over two sites with occupancies 0.3333:0.1667; H13A,H13B 
disordered by symmetry over two configurations with occupancy 0.5; H15A,H15B 
disordered by symmetry over two configurations with occupancy 0.5; H16A 
disordered by symmetry over two configurations with occupancy 0.5; 
N10,N10',N11,N11' disordered by symmetry over two configurations with 
occupancy 0.5; Disordered cation and solvent molecules (dimethylammonium, 
dimethylamine and water) were not modelled and the disordered density was 
taken into account using the SQUEEZE/PLATON procedure.
;
#These two values have been output from a single CSD field.
_refine_ls_R_factor_gt 0.0499
_refine_ls_wR_factor_gt 0.0499
_symmetry_cell_setting monoclinic
_symmetry_space_group_name_H-M 'C 2/m'
_symmetry_Int_Tables_number 12
loop_
_symmetry_equiv_pos_site_id
_symmetry_equiv_pos_as_xyz
1 x,y,z
2 -x,y,-z
3 1/2+x,1/2+y,z
4 1/2-x,1/2+y,-z
5 -x,-y,-z
6 x,-y,z
7 -1/2-x,-1/2-y,-z
8 -1/2+x,-1/2-y,z
_cell_length_a 27.9621(19)
_cell_length_b 32.846(3)
_cell_length_c 13.4780(11)
_cell_angle_alpha 90
_cell_angle_beta 110.883(2)
_cell_angle_gamma 90
_cell_formula_units_Z 4
loop_
_atom_type_symbol
_atom_type_radius_bond
C 0.68
H 0.23
Co 1.26
N 0.68
O 0.68
Tb 1.94
loop_
_atom_site_label
_atom_site_type_symbol
_atom_site_fract_x
_atom_site_fract_y
_atom_site_fract_z
Tb1 Tb 0.09454(2) 0.22108(2) 0.32671(3)
Tb2 Tb 0.00000 0.28041(2) 0.50000
Co1 Co 0.24374(6) 0.00000 0.00799(13)
Co2 Co 0.37077(6) 0.00000 0.11531(13)
N1 N 0.1666(3) 0.0647(2) 0.8719(6)
N2 N 0.2124(3) 0.0469(2) 0.8968(7)
N3 N 0.2369(3) 0.0636(2) 0.8397(7)
N4 N 0.2083(3) 0.0919(3) 0.7828(7)
N5 N 0.2590(2) 0.07445(18) 0.1633(6)
N6 N 0.2794(2) 0.04484(17) 0.1233(5)
N7 N 0.3292(2) 0.04498(17) 0.1673(5)
N8 N 0.3435(2) 0.07445(18) 0.2390(5)
N9 N 0.0793(3) 0.41783(19) -0.1027(6)
N10 N 0.1066(5) 0.4492(3) -0.0397(10)
N11 N 0.1427(5) 0.4358(3) 0.0559(10)
N12 N 0.1340(5) 0.3953(3) 0.0737(10)
O1 O 0.1161(2) 0.18833(17) 0.4906(5)
O2 O 0.0517(2) 0.22474(16) 0.5067(5)
O3 O -0.0433(2) 0.16452(17) 0.7230(5)
O4 O 0.0091(7) 0.1369(5) 0.8748(14)
O5 O 0.1873(2) 0.22481(17) 0.3754(5)
O6 O 0.1522(2) 0.17046(16) 0.2930(5)
O7 O 0.3760(2) 0.22410(15) 0.5615(4)
O8 O 0.4216(2) 0.19208(17) 0.4814(6)
O9 O 0.1036(3) 0.2766(2) 0.2218(5)
O10 O 0.0737(2) 0.22267(19) 0.1305(4)
O11 O -0.0145(2) 0.2467(2) -0.2745(5)
O12 O 0.0269(3) 0.2913(2) -0.3256(5)
O13 O 0.00000 0.3549(4) 0.50000
O14 O 0.3099(3) 0.00000 -0.0287(6)
O15 O 0.1782(3) 0.00000 0.0508(9)
O16 O 0.4319(3) 0.00000 0.2586(8)
C1 C 0.0849(3) 0.1955(2) 0.5343(6)
C2 C 0.0020(7) 0.1511(6) 0.7879(15)
C3 C 0.1645(3) 0.0920(3) 0.8011(8)
C4 C 0.0835(3) 0.1697(2) 0.6247(6)
C5 C 0.0423(3) 0.1703(2) 0.6567(6)
H1 H 0.01540 0.18810 0.62420
C6 C 0.0402(3) 0.1449(3) 0.7368(7)
C7 C 0.0812(4) 0.1189(3) 0.7819(7)
H2 H 0.08080 0.10140 0.83570
C8 C 0.1220(3) 0.1183(3) 0.7495(7)
C9 C 0.1227(3) 0.1432(2) 0.6713(6)
H3 H 0.15040 0.14240 0.64840
C10 C 0.1905(3) 0.1910(2) 0.3372(7)
C11 C 0.3805(3) 0.2002(2) 0.4959(6)
C12 C 0.2991(3) 0.0923(2) 0.2357(6)
C13 C 0.2425(3) 0.1754(2) 0.3478(7)
C14 C 0.2862(3) 0.1940(2) 0.4127(6)
H4 H 0.28330 0.21670 0.45130
C15 C 0.3348(3) 0.1801(2) 0.4233(6)
C16 C 0.3393(3) 0.1464(2) 0.3624(6)
H5 H 0.37130 0.13700 0.36640
C17 C 0.2947(3) 0.1273(2) 0.2960(6)
C18 C 0.2466(3) 0.1426(2) 0.2886(6)
H6 H 0.21710 0.13030 0.24270
C19 C 0.0838(3) 0.2588(3) 0.1373(7)
C20 C 0.0166(4) 0.2754(3) -0.2558(7)
C21 C 0.0912(6) 0.3898(5) -0.0199(10)
C22 C 0.0669(3) 0.2852(3) 0.0377(6)
C23 C 0.0462(3) 0.2678(3) -0.0627(6)
H7 H 0.03900 0.24010 -0.07000
C24 C 0.0361(3) 0.2924(2) -0.1532(6)
C25 C 0.0470(3) 0.3319(3) -0.1404(6)
H8 H 0.04060 0.34800 -0.20040
C26 C 0.0673(4) 0.3499(3) -0.0421(7)
C27 C 0.0760(4) 0.3253(3) 0.0467(7)
H9 H 0.08850 0.33700 0.11400
O17 O 0.4144(7) 0.00000 -0.2185(14)
Co3 Co 0.36909(15) 0.00000 -0.1245(3)
O18 O 0.3256(11) 0.0451(7) -0.223(2)
O19 O 0.2904(7) 0.0646(5) -0.3019(11)
H10 H 0.31230 0.05760 -0.32820
H11 H 0.26100 0.06120 -0.34690
O20 O 0.2406(9) 0.00000 -0.2892(19)
O21? O -0.0162(8) 0.1116(6) 0.8113(16)
H12? H 0.36740 -0.01940 -0.15910
H13? H 0.33950 -0.00940 -0.26240
H14? H 0.23190 -0.02100 -0.26390
H15? H 0.21500 0.01500 -0.31730
H16? H 0.40420 -0.01750 -0.26710
H17? H 0.41410 0.02330 -0.24520
H18? H 0.34380 0.06610 -0.22040
H19? H 0.31400 0.03600 -0.28630
C28? C -0.0134(9) 0.1375(7) 0.7500(17)
Co4? Co 0.29817(14) 0.03132(11) -0.1665(3)
H20? H 0.18680 -0.00670 0.11500
H21? H 0.15670 -0.01690 0.01330
N13? N 0.0869(6) 0.4578(3) -0.0729(9)
N14? N 0.0916(5) 0.4547(3) 0.033(1)
N15? N 0.0806(5) 0.4165(3) 0.0586(11)
C29? C 0.0653(7) 0.3946(5) -0.0346(10)
H22? H -0.02960 0.36350 0.49090
H23? H 0.02040 0.36350 0.55840
H24? H 0.31010 -0.02430 -0.04900
H25? H 0.42880 -0.01940 0.29700
H26? H 0.45910 0.00000 0.24620
O22? O 0.3543(7) 0.00000 -0.2010(16)
Tb1A Tb -0.09454(2) 0.22108(2) -0.32671(3)
N1A N -0.1666(3) 0.0647(2) -0.8719(6)
N2A N -0.2124(3) 0.0469(2) -0.8968(7)
N3A N -0.2369(3) 0.0636(2) -0.8397(7)
N4A N -0.2083(3) 0.0919(3) -0.7828(7)
N5A N -0.2590(2) 0.07445(18) -0.1633(6)
N6A N -0.2794(2) 0.04484(17) -0.1233(5)
N7A N -0.3292(2) 0.04498(17) -0.1673(5)
N8A N -0.3435(2) 0.07445(18) -0.2390(5)
N9A N -0.0793(3) 0.41783(19) 0.1027(6)
N10A N -0.1066(5) 0.4492(3) 0.0397(10)
N11A N -0.1427(5) 0.4358(3) -0.0559(10)
N12A N -0.1340(5) 0.3953(3) -0.0737(10)
O1A O -0.1161(2) 0.18833(17) -0.4906(5)
O2A O -0.0517(2) 0.22474(16) -0.5067(5)
O3A O 0.0433(2) 0.16452(17) -0.7230(5)
O4A O -0.0091(7) 0.1369(5) -0.8748(14)
O5A O -0.1873(2) 0.22481(17) -0.3754(5)
O6A O -0.1522(2) 0.17046(16) -0.2930(5)
O7A O -0.3760(2) 0.22410(15) -0.5615(4)
O8A O -0.4216(2) 0.19208(17) -0.4814(6)
O9A O -0.1036(3) 0.2766(2) -0.2218(5)
O10A O -0.0737(2) 0.22267(19) -0.1305(4)
O11A O 0.0145(2) 0.2467(2) 0.2745(5)
O12A O -0.0269(3) 0.2913(2) 0.3256(5)
C1A C -0.0849(3) 0.1955(2) -0.5343(6)
C2A C -0.0020(7) 0.1511(6) -0.7879(15)
C3A C -0.1645(3) 0.0920(3) -0.8011(8)
C4A C -0.0835(3) 0.1697(2) -0.6247(6)
C5A C -0.0423(3) 0.1703(2) -0.6567(6)
H1A H -0.01540 0.18810 -0.62420
C6A C -0.0402(3) 0.1449(3) -0.7368(7)
C7A C -0.0812(4) 0.1189(3) -0.7819(7)
H2A H -0.08080 0.10140 -0.83570
C8A C -0.1220(3) 0.1183(3) -0.7495(7)
C9A C -0.1227(3) 0.1432(2) -0.6713(6)
H3A H -0.15040 0.14240 -0.64840
C10A C -0.1905(3) 0.1910(2) -0.3372(7)
C11A C -0.3805(3) 0.2002(2) -0.4959(6)
C12A C -0.2991(3) 0.0923(2) -0.2357(6)
C13A C -0.2425(3) 0.1754(2) -0.3478(7)
C14A C -0.2862(3) 0.1940(2) -0.4127(6)
H4A H -0.28330 0.21670 -0.45130
C15A C -0.3348(3) 0.1801(2) -0.4233(6)
C16A C -0.3393(3) 0.1464(2) -0.3624(6)
H5A H -0.37130 0.13700 -0.36640
C17A C -0.2947(3) 0.1273(2) -0.2960(6)
C18A C -0.2466(3) 0.1426(2) -0.2886(6)
H6A H -0.21710 0.13030 -0.24270
C19A C -0.0838(3) 0.2588(3) -0.1373(7)
C20A C -0.0166(4) 0.2754(3) 0.2558(7)
C21A C -0.0912(6) 0.3898(5) 0.0199(10)
C22A C -0.0669(3) 0.2852(3) -0.0377(6)
C23A C -0.0462(3) 0.2678(3) 0.0627(6)
H7A H -0.03900 0.24010 0.07000
C24A C -0.0361(3) 0.2924(2) 0.1532(6)
C25A C -0.0470(3) 0.3319(3) 0.1404(6)
H8A H -0.04060 0.34800 0.20040
C26A C -0.0673(4) 0.3499(3) 0.0421(7)
C27A C -0.0760(4) 0.3253(3) -0.0467(7)
H9A H -0.08850 0.33700 -0.11400
O18E O 0.3256(11) -0.0451(7) -0.223(2)
Tb1* Tb 0.09454(2) 0.22108(2) -0.67329(3)
Tb1A* Tb -0.09454(2) 0.22108(2) 0.67329(3)
Tb1F Tb 0.40546(2) 0.27892(2) 0.67329(3)
Tb1G Tb -0.40546(2) 0.27892(2) -0.67329(3)
Tb2* Tb 0.00000 0.28041(2) -0.50000
Tb2F Tb -0.50000 0.21959(2) -0.50000
Tb2F* Tb 0.50000 0.21959(2) 0.50000
Co1* Co 0.24374(6) 0.00000 1.00799(13)
Co1A Co -0.24374(6) 0.00000 -1.00799(13)
Co1A* Co -0.24374(6) 0.00000 -0.00799(13)
Co2A Co -0.37077(6) 0.00000 -0.11531(13)
Co2B Co -0.12923(6) 0.50000 0.11531(13)
Co2C Co 0.12923(6) 0.50000 -0.11531(13)
N2* N 0.2124(3) 0.0469(2) -0.1032(7)
N2E N 0.2124(3) -0.0469(2) -0.1032(7)
N6E N 0.2794(2) -0.04484(17) 0.1233(5)
N7E N 0.3292(2) -0.04498(17) 0.1673(5)
N10C N 0.3934(5) -0.0508(3) 0.0397(10)
N10F N 0.3934(5) 0.0508(3) 0.0397(10)
N11C N 0.3573(5) -0.0642(3) -0.0559(10)
N11F N 0.3573(5) 0.0642(3) -0.0559(10)
O2A* O -0.0517(2) 0.22474(16) 0.4933(5)
O3* O -0.0433(2) 0.16452(17) -0.2770(5)
O3A* O 0.0433(2) 0.16452(17) 0.2770(5)
O7F O 0.1240(2) 0.27590(15) 0.4385(4)
O7G O -0.1240(2) 0.27590(15) -0.4385(4)
O8F O 0.0784(2) 0.30792(17) 0.5186(6)
O8G O -0.0784(2) 0.30792(17) 0.4814(6)
O12* O 0.0269(3) 0.2913(2) 0.6744(5)
Co3B Co -0.13091(15) 0.50000 -0.1245(3)
Co3C Co 0.13091(15) 0.50000 0.1245(3)
#END
