
#######################################################################
#
#                 Cambridge Crystallographic Data Centre
#                                CCDC
#
#######################################################################
#
# If this CIF has been generated from an entry in the Cambridge
# Structural Database, then it will include bibliographic, chemical,
# crystal, experimental, refinement or atomic coordinate data resulting
# from the CCDC's data processing and validation procedures.
#
#######################################################################

data_CSD_CIF_ZAHKEB
_audit_creation_date 2016-01-07
_audit_creation_method CSD-ConQuest-V1
_database_code_CSD ZAHKEB
_database_code_depnum_ccdc_archive 'CCDC 1437211'
_chemical_formula_sum 'C75 H90 Mn1 N6 O16 U2'
_chemical_formula_moiety
;
(C39 H66 O16 U2 2-)n,n(C36 H24 Mn1 N6 2+)
;
_journal_coden_Cambridge 1147
_journal_volume 16
_journal_year 2016
_journal_page_first 546
_journal_name_full 'Cryst.Growth Des. '
loop_
_publ_author_name
"P.Thuery"
_chemical_name_systematic
;
catena-(tris(1,10-Phenanthroline)-manganese 
tris(\m~2~-tridecane-1,13-dioato)-tetraoxo-di-uranium)
;
_cell_volume   3648.144
_exptl_crystal_colour 'light pink'
_exptl_crystal_density_diffrn 1.696
_exptl_crystal_description 'platelet'
_diffrn_ambient_temperature 150
#These two values have been output from a single CSD field.
_refine_ls_R_factor_gt 0.0576
_refine_ls_wR_factor_gt 0.0576
_symmetry_cell_setting hexagonal
_symmetry_space_group_name_H-M 'P -3 1 c'
_symmetry_Int_Tables_number 163
loop_
_symmetry_equiv_pos_site_id
_symmetry_equiv_pos_as_xyz
1 x,y,z
2 -y,x-y,z
3 -x+y,-x,z
4 -y,-x,1/2-z
5 -x+y,y,1/2-z
6 x,x-y,1/2-z
7 -x,-y,-z
8 y,-x+y,-z
9 x-y,x,-z
10 y,x,-1/2+z
11 x-y,-y,-1/2+z
12 -x,-x+y,-1/2+z
_cell_length_a 13.4563(2)
_cell_length_b 13.4563(2)
_cell_length_c 23.2643(4)
_cell_angle_alpha 90
_cell_angle_beta 90
_cell_angle_gamma 120
_cell_formula_units_Z 2
loop_
_atom_type_symbol
_atom_type_radius_bond
C 0.68
H 0.23
Mn 1.61
N 0.68
O 0.68
U 1.96
loop_
_atom_site_label
_atom_site_type_symbol
_atom_site_fract_x
_atom_site_fract_y
_atom_site_fract_z
U1 U 0.66670 0.33330 0.53551(2)
O1 O 0.66670 0.33330 0.6121(5)
O2 O 0.66670 0.33330 0.4584(5)
O3 O 0.5717(5) 0.4465(5) 0.5382(3)
O4 O 0.7574(5) 0.5449(6) 0.5361(3)
C1 C 0.6685(10) 0.5481(9) 0.5410(7)
C2 C 0.6527(10) 0.6491(10) 0.5495(6)
H1 H 0.62170 0.66430 0.51410
H2 H 0.59770 0.63390 0.58120
C3 C 0.7656(12) 0.7496(10) 0.5637(5)
H3 H 0.76370 0.82180 0.55900
H4 H 0.82620 0.75240 0.53840
C4 C 0.7879(14) 0.7333(16) 0.6258(5)
H5 H 0.87100 0.77670 0.63470
H6 H 0.75770 0.65120 0.63470
C5 C 0.7236(14) 0.7806(19) 0.6590(5)
H7 H 0.71340 0.83630 0.63560
H8 H 0.64740 0.71830 0.67160
C6 C 0.8006(15) 0.8379(18) 0.7093(6)
H9 H 0.87050 0.90900 0.69720
H10 H 0.82360 0.78610 0.72770
C7 C 0.730(2) 0.8648(11) 0.75000
H11 H 0.67890 0.80910 0.77570
Mn1 Mn 0.33330 0.66670 0.75000
N1 N 0.3651(7) 0.5451(7) 0.6978(3)
C8 C 0.3204(11) 0.5017(9) 0.6466(4)
H12 H 0.26870 0.52200 0.62960
C9 C 0.3467(14) 0.4275(10) 0.6169(5)
H13 H 0.31490 0.39980 0.57990
C10 C 0.4168(15) 0.3955(10) 0.6408(6)
H14 H 0.43430 0.34430 0.62110
C11 C 0.4646(12) 0.4383(10) 0.6955(5)
C12 C 0.4365(9) 0.5142(8) 0.7217(4)
C13 C 0.5453(14) 0.4128(13) 0.7237(6)
H15 H 0.56900 0.36560 0.70480
O3E O 0.5717(5) 1.1252(5) 0.9618(3)
O4E O 0.7574(5) 1.2125(6) 0.9639(3)
C1E C 0.6685(10) 1.1204(9) 0.9590(7)
C2E C 0.6527(10) 1.0036(10) 0.9505(6)
H1E H 0.62170 0.95740 0.98590
H2E H 0.59770 0.96380 0.91880
C3E C 0.7656(12) 1.016(1) 0.9363(5)
H3E H 0.76370 0.94190 0.94100
H4E H 0.82620 1.07380 0.96160
C4E C 0.7879(14) 1.0546(16) 0.8742(5)
H5E H 0.87100 1.09430 0.86530
H6E H 0.75770 1.10650 0.86530
C5E C 0.7236(14) 0.9430(19) 0.8410(5)
H7E H 0.71340 0.87710 0.86440
H8E H 0.64740 0.92910 0.82840
C6E C 0.8006(15) 0.9627(18) 0.7907(6)
H9E H 0.87050 0.96150 0.80280
H10E H 0.82360 1.03750 0.77230
H11E H 0.67890 0.86980 0.72430
O3A O 0.5535(5) 0.1252(5) 0.5382(3)
O4A O 0.4551(5) 0.2125(6) 0.5361(3)
C1A C 0.4519(10) 0.1204(9) 0.5410(7)
C2A C 0.3509(10) 0.0036(10) 0.5495(6)
H1A H 0.33570 -0.04260 0.51410
H2A H 0.36610 -0.03620 0.58120
C3A C 0.2504(12) 0.016(1) 0.5637(5)
H3A H 0.17820 -0.05810 0.55900
H4A H 0.24760 0.07380 0.53840
C4A C 0.2667(14) 0.0546(16) 0.6258(5)
H5A H 0.22330 0.09430 0.63470
H6A H 0.34880 0.10650 0.63470
C5A C 0.2194(14) -0.0570(19) 0.6590(5)
H7A H 0.16370 -0.12290 0.63560
H8A H 0.28170 -0.07090 0.67160
C6A C 0.1621(15) -0.0373(18) 0.7093(6)
H9A H 0.09100 -0.03850 0.69720
H10A H 0.21390 0.03750 0.72770
C7A C 0.1352(20) -0.1348(11) 0.75000
H11A H 0.19090 -0.13020 0.77570
O3D O -0.1252(5) -0.5535(5) 0.9618(3)
O4D O -0.2125(5) -0.4551(6) 0.9639(3)
C1D C -0.1204(10) -0.4519(9) 0.9590(7)
C2D C -0.0036(10) -0.3509(10) 0.9505(6)
H1D H 0.04260 -0.33570 0.98590
H2D H 0.03620 -0.36610 0.91880
C3D C -0.0160(12) -0.2504(10) 0.9363(5)
H3D H 0.05810 -0.17820 0.94100
H4D H -0.07380 -0.24760 0.96160
C4D C -0.0546(14) -0.2667(16) 0.8742(5)
H5D H -0.09430 -0.22330 0.86530
H6D H -0.10650 -0.34880 0.86530
C5D C 0.0570(14) -0.2194(19) 0.8410(5)
H7D H 0.12290 -0.16370 0.86440
H8D H 0.07090 -0.28170 0.82840
C6D C 0.0373(15) -0.1621(18) 0.7907(6)
H9D H 0.03850 -0.09100 0.80280
H10D H -0.03750 -0.21390 0.77230
H11D H 0.13020 -0.19090 0.72430
O3B O 0.8748(5) 0.4283(5) 0.5382(3)
O4B O 0.7875(5) 0.2426(6) 0.5361(3)
C1B C 0.8796(10) 0.3315(9) 0.5410(7)
C2B C 0.9964(10) 0.3473(10) 0.5495(6)
H1B H 1.04260 0.37830 0.51410
H2B H 1.03620 0.40230 0.58120
C3B C 0.9840(12) 0.2344(10) 0.5637(5)
H3B H 1.05810 0.23630 0.55900
H4B H 0.92620 0.17380 0.53840
C4B C 0.9454(14) 0.2121(16) 0.6258(5)
H5B H 0.90570 0.12900 0.63470
H6B H 0.89350 0.24230 0.63470
C5B C 1.0570(14) 0.2764(19) 0.6590(5)
H7B H 1.12290 0.28660 0.63560
H8B H 1.07090 0.35260 0.67160
C6B C 1.0373(15) 0.1994(18) 0.7093(6)
H9B H 1.03850 0.12950 0.69720
H10B H 0.96250 0.17640 0.72770
C7B C 1.1348(20) 0.2700(11) 0.75000
H11B H 1.13020 0.32110 0.77570
O3C O 1.5535(5) 0.4283(5) 0.9618(3)
O4C O 1.4551(5) 0.2426(6) 0.9639(3)
C1C C 1.4519(10) 0.3315(9) 0.9590(7)
C2C C 1.3509(10) 0.3473(10) 0.9505(6)
H1C H 1.33570 0.37830 0.98590
H2C H 1.36610 0.40230 0.91880
C3C C 1.2504(12) 0.2344(10) 0.9363(5)
H3C H 1.17820 0.23630 0.94100
H4C H 1.24760 0.17380 0.96160
C4C C 1.2667(14) 0.2121(16) 0.8742(5)
H5C H 1.22330 0.12900 0.86530
H6C H 1.34880 0.24230 0.86530
C5C C 1.2194(14) 0.2764(19) 0.8410(5)
H7C H 1.16370 0.28660 0.86440
H8C H 1.28170 0.35260 0.82840
C6C C 1.1621(15) 0.1994(18) 0.7907(6)
H9C H 1.09100 0.12950 0.80280
H10C H 1.21390 0.17640 0.77230
H11C H 1.19090 0.32110 0.72430
U1C U 0.66670 1.33330 0.96449(2)
O1C O 0.66670 1.33330 0.8879(5)
O2C O 0.66670 1.33330 1.0416(5)
U1C* U -0.33330 -0.66670 0.96449(2)
U1C** U 1.66670 0.33330 0.96449(2)
O3C* O 0.5535(5) 1.4283(5) 0.9618(3)
O3D* O 0.8748(5) 1.4465(5) 0.9618(3)
O4C* O 0.4551(5) 1.2426(6) 0.9639(3)
O4D* O 0.7875(5) 1.5449(6) 0.9639(3)
N1C N 0.4549(7) 0.6349(7) 0.8022(3)
C8C C 0.4983(11) 0.6796(9) 0.8534(4)
H12C H 0.47800 0.73130 0.87040
C9C C 0.5725(14) 0.6533(10) 0.8831(5)
H13C H 0.60020 0.68510 0.92010
C10C C 0.6045(15) 0.5832(10) 0.8592(6)
H14C H 0.65570 0.56570 0.87890
C11C C 0.5617(12) 0.5354(10) 0.8045(5)
C12C C 0.4858(9) 0.5635(8) 0.7783(4)
C13C C 0.5872(14) 0.4547(13) 0.7763(6)
H15C H 0.63440 0.43100 0.79520
N1A N 0.4549(7) 0.8200(7) 0.6978(3)
C8A C 0.4983(11) 0.8187(9) 0.6466(4)
H12A H 0.47800 0.74670 0.62960
C9A C 0.5725(14) 0.9192(10) 0.6169(5)
H13A H 0.60020 0.91510 0.57990
C10A C 0.6045(15) 1.0213(10) 0.6408(6)
H14A H 0.65570 1.09000 0.62110
C11A C 0.5617(12) 1.0263(10) 0.6955(5)
C12A C 0.4858(9) 0.9223(8) 0.7217(4)
C13A C 0.5872(14) 1.1325(13) 0.7237(6)
H15A H 0.63440 1.20340 0.70480
N1E N 0.3651(7) 0.8200(7) 0.8022(3)
C8E C 0.3204(11) 0.8187(9) 0.8534(4)
H12E H 0.26870 0.74670 0.87040
C9E C 0.3467(14) 0.9192(10) 0.8831(5)
H13E H 0.31490 0.91510 0.92010
C10E C 0.4168(15) 1.0213(10) 0.8592(6)
H14E H 0.43430 1.09000 0.87890
C11E C 0.4646(12) 1.0263(10) 0.8045(5)
C12E C 0.4365(9) 0.9223(8) 0.7783(4)
C13E C 0.5453(14) 1.1325(13) 0.7763(6)
H15E H 0.56900 1.20340 0.79520
N1B N 0.1800(7) 0.6349(7) 0.6978(3)
C8B C 0.1813(11) 0.6796(9) 0.6466(4)
H12B H 0.25330 0.73130 0.62960
C9B C 0.0808(14) 0.6533(10) 0.6169(5)
H13B H 0.08490 0.68510 0.57990
C10B C -0.0213(15) 0.5832(10) 0.6408(6)
H14B H -0.09000 0.56570 0.62110
C11B C -0.0263(12) 0.5354(10) 0.6955(5)
C12B C 0.0777(9) 0.5635(8) 0.7217(4)
C13B C -0.1325(14) 0.4547(13) 0.7237(6)
H15B H -0.20340 0.43100 0.70480
N1D N 0.1800(7) 0.5451(7) 0.8022(3)
C8D C 0.1813(11) 0.5017(9) 0.8534(4)
H12D H 0.25330 0.52200 0.87040
C9D C 0.0808(14) 0.4275(10) 0.8831(5)
H13D H 0.08490 0.39980 0.92010
C10D C -0.0213(15) 0.3955(10) 0.8592(6)
H14D H -0.09000 0.34430 0.87890
C11D C -0.0263(12) 0.4383(10) 0.8045(5)
C12D C 0.0777(9) 0.5142(8) 0.7783(4)
C13D C -0.1325(14) 0.4128(13) 0.7763(6)
H15D H -0.20340 0.36560 0.79520
#END
