
#######################################################################
#
#                 Cambridge Crystallographic Data Centre
#                                CCDC
#
#######################################################################
#
# If this CIF has been generated from an entry in the Cambridge
# Structural Database, then it will include bibliographic, chemical,
# crystal, experimental, refinement or atomic coordinate data resulting
# from the CCDC's data processing and validation procedures.
#
#######################################################################

data_CSD_CIF_ZAHNAB
_audit_creation_date 2020-10-21
_audit_creation_method CSD-ConQuest-V1
_database_code_CSD ZAHNAB
_database_code_depnum_ccdc_archive 'CCDC 1970449'
_chemical_formula_sum 'C74 H70 N5 O26 Tb3'
_chemical_formula_moiety
;
(C61 H33 O23 Tb3 2-)n,3(C3 H7 N1 O1),2(C2 H8 N1 1+)
;
_journal_coden_Cambridge 82
_journal_volume 61
_journal_year 2020
_journal_page_first 1090
_journal_name_full 'Zh.Strukt.Khim.(Russ.)(J.Struct.Chem.) '
loop_
_publ_author_name
"M.O.Barsukova"
"D.G.Samsonenko"
"V.P.Fedin"
_chemical_name_systematic
;
catena-(bis(dimethylammonium) 
(\m-formato)-pentakis(\m-naphthalene-1,4-dicarboxylato)-aqua-tri-terbium 
dimethylformamide solvate)
;
_cell_volume   7220.791
_exptl_crystal_colour 'colorless'
_exptl_crystal_density_diffrn 1.768
_exptl_crystal_description 'plate'
_diffrn_ambient_temperature 130
_refine_special_details
;
C21D,C22D,O2D and C21A,C22A,O2A disordered over two sites with occupancies 
0.596:0.404.
;
#These two values have been output from a single CSD field.
_refine_ls_R_factor_gt 0.0308
_refine_ls_wR_factor_gt 0.0308
_symmetry_cell_setting monoclinic
_symmetry_space_group_name_H-M 'P 21/n'
_symmetry_Int_Tables_number 14
loop_
_symmetry_equiv_pos_site_id
_symmetry_equiv_pos_as_xyz
1 x,y,z
2 1/2-x,1/2+y,1/2-z
3 -x,-y,-z
4 -1/2+x,-1/2-y,-1/2+z
_cell_length_a 15.5565(2)
_cell_length_b 23.3284(3)
_cell_length_c 20.3669(3)
_cell_angle_alpha 90
_cell_angle_beta 102.3313(15)
_cell_angle_gamma 90
_cell_formula_units_Z 4
loop_
_atom_type_symbol
_atom_type_radius_bond
C 0.68
H 0.23
N 0.68
O 0.68
Tb 1.94
loop_
_atom_site_label
_atom_site_type_symbol
_atom_site_fract_x
_atom_site_fract_y
_atom_site_fract_z
Tb1 Tb 0.83774(2) 0.23142(2) 0.58897(2)
Tb2 Tb 0.75163(2) 0.27698(2) 0.75383(2)
Tb3 Tb 0.65811(2) 0.23278(2) 0.91485(2)
O1 O 0.75926(17) 0.17425(10) 0.75625(13)
H1 H 0.769(3) 0.1546(13) 0.7238(13)
H2 H 0.731(2) 0.1550(13) 0.7796(16)
O2 O 0.79890(15) 0.35385(9) 0.69984(12)
O3 O 0.84385(14) 0.33107(9) 0.60566(11)
O4 O 0.81683(15) 0.64390(9) 0.64079(11)
O5 O 0.88162(15) 0.63017(9) 0.55637(11)
C1 C 0.82075(19) 0.36610(13) 0.64578(16)
C2 C 0.8212(2) 0.42927(13) 0.62931(16)
C3 C 0.7879(2) 0.45157(13) 0.56345(16)
C4 C 0.7458(2) 0.41701(14) 0.50861(17)
H3 H 0.74466 0.37655 0.51356
C5 C 0.7069(2) 0.44168(15) 0.44849(18)
H4 H 0.67968 0.41792 0.41207
C6 C 0.7064(2) 0.50161(15) 0.43970(18)
H5 H 0.67708 0.51803 0.39826
C7 C 0.7481(2) 0.53602(14) 0.49092(17)
H6 H 0.74836 0.57637 0.48460
C8 C 0.7912(2) 0.51222(13) 0.55357(16)
C9 C 0.8322(2) 0.54756(13) 0.60881(16)
C10 C 0.8601(2) 0.52445(13) 0.67166(18)
H7 H 0.88437 0.54878 0.70836
C11 C 0.8535(2) 0.46519(14) 0.68251(17)
H8 H 0.87119 0.44996 0.72658
C12 C 0.84407(19) 0.61055(13) 0.60082(16)
O6 O 0.62431(15) 0.33055(9) 0.88646(12)
O7 O 0.70211(14) 0.35246(9) 0.80933(12)
O8 O 0.58504(15) 0.6355(1) 0.91265(13)
O9 O 0.69615(16) 0.64072(9) 0.86263(12)
C13 C 0.6621(2) 0.36514(13) 0.85467(16)
C14 C 0.6614(2) 0.42804(13) 0.87213(16)
C15 C 0.7415(2) 0.46022(14) 0.88929(18)
C16 C 0.8259(2) 0.43376(16) 0.8974(2)
H9 H 0.82984 0.39394 0.88863
C17 C 0.9008(3) 0.46501(18) 0.9174(3)
H10 H 0.95649 0.44701 0.92135
C18 C 0.8967(3) 0.52393(17) 0.9325(3)
H11 H 0.94937 0.54476 0.94900
C19 C 0.8171(2) 0.55106(16) 0.9235(2)
H12 H 0.81505 0.59091 0.93267
C20 C 0.7372(2) 0.52031(14) 0.90050(18)
C21 C 0.6519(2) 0.54731(13) 0.88941(17)
C22 C 0.5775(2) 0.51451(14) 0.87617(19)
H13 H 0.52177 0.53241 0.87217
C23 C 0.5818(2) 0.45445(14) 0.86831(18)
H14 H 0.52936 0.43231 0.86036
C24 C 0.6439(2) 0.61128(13) 0.88819(16)
O10 O 0.51584(14) 0.22017(10) 0.83831(12)
O11 O 0.62192(13) 0.24166(9) 0.78665(11)
O12 O 0.25965(14) 0.3010(1) 0.51531(11)
O13 O 0.24038(15) 0.20847(10) 0.50349(12)
C25 C 0.54154(19) 0.23188(12) 0.78538(15)
C26 C 0.47552(19) 0.23472(14) 0.72032(17)
C27 C 0.4407(2) 0.28631(14) 0.69642(17)
H15 H 0.45877 0.32029 0.72125
C28 C 0.3785(2) 0.28956(15) 0.63564(17)
H16 H 0.35581 0.32611 0.62027
C29 C 0.34860(19) 0.24179(14) 0.59690(16)
C30 C 0.3864(2) 0.18653(14) 0.62019(16)
C31 C 0.3661(2) 0.13470(15) 0.58351(18)
H17 H 0.32611 0.13551 0.54114
C32 C 0.4030(3) 0.08356(16) 0.6080(2)
H18 H 0.38739 0.04944 0.58278
C33 C 0.4634(3) 0.08103(17) 0.6696(2)
H19 H 0.48846 0.04529 0.68596
C34 C 0.4863(3) 0.12967(16) 0.70631(19)
H20 H 0.52723 0.12748 0.74817
C35 C 0.4498(2) 0.18363(14) 0.68270(16)
C36 C 0.2801(2) 0.25053(14) 0.53529(16)
O14 O 0.78826(13) 0.24512(9) 0.87575(11)
O15 O 0.88120(14) 0.30316(9) 0.84219(11)
O16 O 1.12510(14) 0.19155(10) 1.16755(11)
O17 O 1.20846(13) 0.25584(9) 1.13263(11)
C37 C 0.86537(19) 0.26872(13) 0.88527(15)
C38 C 0.93457(19) 0.25406(14) 0.94561(15)
C39 C 0.9851(2) 0.29836(14) 0.97821(16)
H21 H 0.97461 0.33639 0.96179
C40 C 1.05216(19) 0.28800(14) 1.03561(16)
H22 H 1.08547 0.31921 1.05777
C41 C 1.06996(19) 0.23301(13) 1.05996(16)
C42 C 1.02087(19) 0.18577(13) 1.02565(16)
C43 C 1.0405(2) 0.12810(14) 1.04650(17)
H23 H 1.08646 0.12064 1.08441
C44 C 0.9944(2) 0.08349(14) 1.01304(19)
H24 H 1.00778 0.04539 1.02831
C45 C 0.9271(2) 0.09344(15) 0.95588(18)
H25 H 0.89540 0.06200 0.93284
C46 C 0.9070(2) 0.14824(14) 0.93328(17)
H26 H 0.86243 0.15428 0.89405
C47 C 0.95225(19) 0.19628(14) 0.96793(16)
C48 C 1.13745(19) 0.22509(13) 1.12269(16)
O18 O 0.87949(13) 0.24278(9) 0.71526(11)
O19 O 0.98680(15) 0.24569(12) 0.66101(12)
O20 O 1.24221(15) 0.22487(9) 0.99468(11)
O21 O 1.24772(15) 0.31888(9) 0.99482(11)
C49 C 0.9607(2) 0.24879(13) 0.71492(16)
C50 C 1.0250(2) 0.25780(13) 0.77852(17)
C51 C 1.0534(2) 0.21149(14) 0.82052(17)
H27 H 1.02967 0.17449 0.80849
C52 C 1.1166(2) 0.21864(14) 0.88051(16)
H28 H 1.13566 0.18591 0.90745
C53 C 1.15134(18) 0.27037(12) 0.90134(15)
C54 C 1.1223(2) 0.32108(14) 0.86112(16)
C55 C 1.1517(2) 0.37786(14) 0.87915(18)
H29 H 1.19155 0.38434 0.92080
C56 C 1.1234(2) 0.42348(15) 0.83738(19)
H30 H 1.14502 0.46086 0.85003
C57 C 1.0628(2) 0.41535(15) 0.77600(18)
H31 H 1.04341 0.44712 0.74749
C58 C 1.0321(2) 0.36196(15) 0.75779(17)
H32 H 0.99065 0.35694 0.71661
C59 C 1.0604(2) 0.31345(14) 0.79865(16)
C60 C 1.21749(19) 0.27234(13) 0.96682(15)
O22 O 0.93277(16) 0.24295(12) 0.51687(13)
O23 O 1.05922(14) 0.25184(10) 0.48517(12)
C61 C 0.9787(2) 0.25958(17) 0.47956(19)
H33 H 0.94991 0.28104 0.44155
N1 N 0.4114(2) 0.65623(16) 0.92368(19)
H34 H 0.40916 0.68950 0.94658
H35 H 0.46740 0.65193 0.91773
C62 C 0.3902(3) 0.6077(2) 0.9646(3)
H36 H 0.43401 0.60586 1.00705
H37 H 0.39104 0.57180 0.93984
H38 H 0.33166 0.61349 0.97409
C63 C 0.3520(3) 0.6605(2) 0.8582(2)
H39 H 0.36542 0.69530 0.83541
H40 H 0.29111 0.66221 0.86406
H41 H 0.35937 0.62688 0.83113
N2 N 0.9022(3) 0.5931(2) 0.4304(2)
H42 H 0.89306 0.60115 0.47215
H43 H 0.88281 0.55682 0.41973
C64 C 0.8504(5) 0.6332(4) 0.3819(4)
H44 H 0.79235 0.63866 0.39233
H45 H 0.84351 0.61761 0.33637
H46 H 0.88098 0.67018 0.38450
C65 C 0.9948(4) 0.5958(4) 0.4321(3)
H47 H 1.02662 0.57200 0.46902
H48 H 1.01495 0.63558 0.43894
H49 H 1.00605 0.58164 0.38940
O24 O 0.4256(2) 0.42946(14) 0.69604(18)
C66 C 0.5057(3) 0.4338(2) 0.6985(2)
H50 H 0.53801 0.39912 0.69967
N3 N 0.5506(2) 0.48262(16) 0.69968(19)
C67 C 0.5063(3) 0.5371(2) 0.6998(2)
H51 H 0.54351 0.56324 0.73142
H52 H 0.45030 0.53141 0.71360
H53 H 0.49517 0.55370 0.65459
C68 C 0.6450(3) 0.4818(2) 0.7040(3)
H54 H 0.67449 0.50432 0.74294
H55 H 0.65803 0.49837 0.66294
H56 H 0.66631 0.44216 0.70892
O25 O 0.3427(3) 0.51217(17) 0.8382(2)
C69 C 0.3447(3) 0.4609(2) 0.8241(3)
H57 H 0.33432 0.45093 0.77785
N4 N 0.3603(2) 0.41822(19) 0.8688(2)
C70 C 0.3671(4) 0.3597(3) 0.8497(4)
H58 H 0.33128 0.33563 0.87283
H59 H 0.42873 0.34744 0.86219
H60 H 0.34608 0.35588 0.80098
C71 C 0.3735(4) 0.4338(3) 0.9397(3)
H61 H 0.36513 0.39987 0.96604
H62 H 0.33095 0.46339 0.94527
H63 H 0.43338 0.44853 0.95542
O26 O 0.9192(5) 0.4770(3) 0.3995(4)
C72 C 0.9070(8) 0.4284(5) 0.3827(7)
H64 H 0.94561 0.39990 0.40573
C73 C 0.7913(8) 0.4520(5) 0.2850(6)
H65 H 0.74601 0.43160 0.25256
H66 H 0.76321 0.48031 0.30919
H67 H 0.83130 0.47158 0.26120
N5 N 0.8397(3) 0.4121(2) 0.3317(2)
C74 C 0.8120(5) 0.3551(3) 0.3130(4)
H68 H 0.81915 0.33123 0.35343
H69 H 0.84776 0.33951 0.28307
H70 H 0.74994 0.35541 0.28979
O27? O 0.8501(8) 0.5121(5) 0.3391(6)
C75? C 0.8240(12) 0.4682(5) 0.3152(9)
H71? H 0.78150 0.47274 0.27445
C76? C 0.8987(13) 0.4007(9) 0.3945(8)
H72? H 0.93636 0.36803 0.38932
H73? H 0.86476 0.39160 0.42854
H74? H 0.93528 0.43450 0.40857
Tb1A Tb 0.66226(2) 0.73142(2) 0.91103(2)
Tb1C Tb 1.33774(2) 0.26858(2) 1.08897(2)
Tb2C Tb 1.25163(2) 0.22302(2) 1.25383(2)
Tb3A Tb 0.84189(2) 0.73278(2) 0.58515(2)
Tb3C Tb 0.15811(2) 0.26722(2) 0.41485(2)
Tb3C* Tb 1.15811(2) 0.26722(2) 0.41485(2)
O4A O 0.68317(15) 0.14390(9) 0.85921(11)
O5A O 0.61838(15) 0.13017(9) 0.94363(11)
O8A O 0.91496(15) 0.1355(1) 0.58735(13)
O9A O 0.80385(16) 0.14072(9) 0.63737(12)
O12C O 0.75965(14) 0.1990(1) 1.01531(11)
O13C O 0.74038(15) 0.29153(10) 1.00349(12)
O16C O 0.62510(14) 0.30845(10) 0.66755(11)
O17C O 0.70846(13) 0.24416(9) 0.63263(11)
O20C O 0.74221(15) 0.27513(9) 0.49468(11)
O21C O 0.74772(15) 0.18112(9) 0.49482(11)
O23C O 0.55922(14) 0.24816(10) 0.98517(12)
#END
