
#######################################################################
#
#                 Cambridge Crystallographic Data Centre
#                                CCDC
#
#######################################################################
#
# If this CIF has been generated from an entry in the Cambridge
# Structural Database, then it will include bibliographic, chemical,
# crystal, experimental, refinement or atomic coordinate data resulting
# from the CCDC's data processing and validation procedures.
#
#######################################################################

data_CSD_CIF_ZAHYUF
_audit_creation_date 2017-02-13
_audit_creation_method CSD-ConQuest-V1
_database_code_CSD ZAHYUF
_database_code_depnum_ccdc_archive 'CCDC 1517633'
_chemical_formula_sum 'C26 H30 Cd1 N8 O9'
_chemical_formula_moiety
;
(C21 H15 Cd1 N6 O8 1-)n,n(C2 H8 N1 1+),n(C3 H7 N1 O1)
;
_journal_coden_Cambridge 119
_journal_volume 1136
_journal_year 2017
_journal_page_first 140
_journal_name_full 'J.Mol.Struct. '
loop_
_publ_author_name
"Chunlan Zhu"
_chemical_name_systematic
;
catena-[dimethylammonium 
(\m-5-((4-(3-carboxy-5-carboxylatoanilino)-6-(dimethylamino)-1,3,5-triazin-2-y
l)amino)benzene-1,3-dicarboxylato)-cadmium N,N-dimethylformamide solvate]
;
_cell_volume   6129.969
_exptl_crystal_colour 'colorless'
_exptl_crystal_description 'block'
_diffrn_ambient_temperature 293
_refine_special_details
;
Disordered solvent molecules were not modelled and the disordered density was 
taken into account using the SQUEEZE/PLATON procedure; The dimethylammonium 
cations have not been modelled.
;
#These two values have been output from a single CSD field.
_refine_ls_R_factor_gt 0.0575
_refine_ls_wR_factor_gt 0.0575
_symmetry_cell_setting monoclinic
_symmetry_space_group_name_H-M 'C 2/c'
_symmetry_Int_Tables_number 15
loop_
_symmetry_equiv_pos_site_id
_symmetry_equiv_pos_as_xyz
1 x,y,z
2 -x,y,1/2-z
3 1/2+x,1/2+y,z
4 1/2-x,1/2+y,1/2-z
5 -x,-y,-z
6 x,-y,-1/2+z
7 -1/2-x,-1/2-y,-z
8 -1/2+x,-1/2-y,-1/2+z
_cell_length_a 33.5551(10)
_cell_length_b 10.2830(3)
_cell_length_c 20.3648(8)
_cell_angle_alpha 90
_cell_angle_beta 119.265(1)
_cell_angle_gamma 90
_cell_formula_units_Z 8
loop_
_atom_type_symbol
_atom_type_radius_bond
C 0.68
H 0.23
Cd 1.44
N 0.68
O 0.68
loop_
_atom_site_label
_atom_site_type_symbol
_atom_site_fract_x
_atom_site_fract_y
_atom_site_fract_z
C1 C -0.0951(2) 0.2811(7) 0.1371(4)
C2 C -0.0698(2) 0.3028(7) 0.0942(4)
C3 C -0.0935(2) 0.3369(7) 0.0187(4)
H1 H -0.12500 0.34910 -0.00510
C4 C -0.0701(2) 0.3526(7) -0.0212(4)
C5 C -0.0230(2) 0.3379(7) 0.0136(4)
H2 H -0.00770 0.34950 -0.01350
C6 C 0.0011(2) 0.3054(7) 0.0903(4)
C7 C -0.0227(2) 0.2881(7) 0.1300(4)
H3 H -0.00680 0.26660 0.18090
C8 C -0.0974(2) 0.3863(7) -0.1024(4)
C9 C 0.0813(2) 0.2920(6) 0.1114(4)
C10 C 0.1048(2) 0.3174(7) 0.0256(4)
C11 C 0.1568(2) 0.2744(6) 0.1459(4)
C12 C 0.0479(3) 0.3591(10) -0.1046(4)
H4 H 0.04580 0.34340 -0.15260
H5 H 0.03800 0.44620 -0.10310
H6 H 0.02870 0.29850 -0.09700
C13 C 0.1300(4) 0.3518(12) -0.0665(6)
H7 H 0.12220 0.41730 -0.10450
H8 H 0.13320 0.26940 -0.08560
H9 H 0.15830 0.37440 -0.02280
C14 C 0.2391(2) 0.2593(6) 0.1896(4)
C15 C 0.2559(2) 0.3774(6) 0.1837(4)
H10 H 0.23940 0.45280 0.17870
C16 C 0.2979(2) 0.3851(6) 0.1853(4)
C17 C 0.3224(2) 0.2719(6) 0.1920(4)
H11 H 0.35090 0.27670 0.19500
C18 C 0.30431(19) 0.1523(6) 0.1942(3)
C19 C 0.2625(2) 0.1468(6) 0.1936(3)
H12 H 0.25040 0.06660 0.19600
C20 C 0.3183(2) 0.5159(6) 0.1862(4)
C21 C 0.3284(2) 0.0264(6) 0.1982(3)
Cd1 Cd -0.145929(14) 0.26339(4) 0.20525(2)
N1 N 0.04883(18) 0.2877(6) 0.1329(3)
H13 H 0.05900 0.27170 0.17990
N2 N 0.06933(18) 0.3136(6) 0.0397(3)
N3 N 0.14914(19) 0.2969(6) 0.0766(3)
N4 N 0.12456(18) 0.2713(5) 0.1684(3)
N5 N 0.0943(2) 0.3431(7) -0.0463(3)
N6 N 0.1995(2) 0.2505(5) 0.1987(4)
H14 H 0.20380 0.22780 0.24230
O1 O -0.07373(16) 0.2690(5) 0.2068(3)
O2 O -0.13827(16) 0.2772(5) 0.0994(3)
O3 O -0.13828(16) 0.4105(6) -0.1328(3)
O4 O -0.07384(16) 0.3910(6) -0.1385(3)
H15 H -0.08780 0.43450 -0.17690
O5 O 0.29370(17) 0.6160(4) 0.1722(3)
O6 O 0.35932(18) 0.5234(6) 0.2027(4)
O7 O 0.37047(15) 0.0239(4) 0.2237(2)
O8 O 0.30353(16) -0.0736(4) 0.1739(3)
Cd1A Cd 0.145929(14) 0.26339(4) 0.29475(2)
Cd1B Cd 0.354071(14) -0.23661(4) 0.20525(2)
Cd1B* Cd 0.354071(14) 0.76339(4) 0.20525(2)
N4A N -0.12456(18) 0.2713(5) 0.3316(3)
O5B O -0.20630(17) 0.1160(4) 0.1722(3)
O6B O -0.14068(18) 0.0234(6) 0.2027(4)
O7B O -0.12953(15) 0.5239(4) 0.2237(2)
O8B O -0.19647(16) 0.4264(4) 0.1739(3)
#END
