
#######################################################################
#
#                 Cambridge Crystallographic Data Centre
#                                CCDC
#
#######################################################################
#
# If this CIF has been generated from an entry in the Cambridge
# Structural Database, then it will include bibliographic, chemical,
# crystal, experimental, refinement or atomic coordinate data resulting
# from the CCDC's data processing and validation procedures.
#
#######################################################################

data_CSD_CIF_ZARMAI
_audit_creation_date 2013-04-04
_audit_creation_method CSD-ConQuest-V1
_database_code_CSD ZARMAI
_database_code_depnum_ccdc_archive 'CCDC 837717'
_chemical_formula_sum 'C24 H22 N4 O13 Zn3'
_chemical_formula_moiety
;
(C4 H12 N1 1+)n,n(C20 H10 N3 O13 Zn3 1-)
;
_journal_coden_Cambridge 182
_journal_volume 48
_journal_year 2012
_journal_page_first 3653
_journal_name_full 'Chem.Commun. '
loop_
_publ_author_name
"Zhi-Qiang Jiang"
"Gui-Yuan Jiang"
"Fei Wang"
"Zhen Zhao"
"Jian Zhang"
_chemical_name_systematic
;
catena-(Tetramethylammonium 
bis(\m~5~-benzene-1,3,5-tricarboxylato)-(\m~3~-2,3-dihydro-1H-1,2,3-triaqzole)
-aqua-tri-zinc)
;
_cell_volume  10249.570
_exptl_crystal_colour 'colorless'
_exptl_crystal_density_diffrn 0.996
_exptl_crystal_description 'prism'
_diffrn_ambient_temperature 293
_refine_special_details
;
The SQUEEZE/PLATON program may have been used.

;
#These two values have been output from a single CSD field.
_refine_ls_R_factor_gt 0.0781
_refine_ls_wR_factor_gt 0.0781
_symmetry_cell_setting tetragonal
_symmetry_space_group_name_H-M 'I 4/m'
_symmetry_Int_Tables_number 87
loop_
_symmetry_equiv_pos_site_id
_symmetry_equiv_pos_as_xyz
1 x,y,z
2 -x,-y,z
3 -y,x,z
4 y,-x,z
5 1/2+x,1/2+y,1/2+z
6 1/2-x,1/2-y,1/2+z
7 1/2-y,1/2+x,1/2+z
8 1/2+y,1/2-x,1/2+z
9 -x,-y,-z
10 x,y,-z
11 y,-x,-z
12 -y,x,-z
13 -1/2-x,-1/2-y,-1/2-z
14 -1/2+x,-1/2+y,-1/2-z
15 -1/2+y,-1/2-x,-1/2-z
16 -1/2-y,-1/2+x,-1/2-z
_cell_length_a 21.265(4)
_cell_length_b 21.265(4)
_cell_length_c 22.666(6)
_cell_angle_alpha 90
_cell_angle_beta 90
_cell_angle_gamma 90
_cell_formula_units_Z 8
loop_
_atom_type_symbol
_atom_type_radius_bond
C 0.68
H 0.23
N 0.68
O 0.68
Zn 1.52
loop_
_atom_site_label
_atom_site_type_symbol
_atom_site_fract_x
_atom_site_fract_y
_atom_site_fract_z
Zn1 Zn 0.66891(5) -0.18447(5) 0.87322(4)
Zn2 Zn 0.77130(8) 0.12035(7) 0.50000
O1 O 0.7508(3) 0.0530(4) 0.5618(3)
N1 N 0.6802(5) 0.1662(5) 0.50000
O2 O 0.7060(4) -0.1522(4) 0.8045(3)
O3 O 0.8320(3) -0.1739(4) 0.5592(3)
O4 O 0.7892(4) -0.2350(5) 0.6245(4)
O5 O 0.7002(4) 0.0822(5) 0.6425(4)
C1 C 0.7663(4) -0.0705(4) 0.6078(4)
H1 H 0.78350 -0.06360 0.57060
C2 C 0.7365(5) -0.0217(5) 0.6385(4)
C3 C 0.7197(5) -0.0895(5) 0.7230(4)
C4 C 0.7697(5) -0.1286(5) 0.6337(4)
C5 C 0.7486(5) -0.1371(5) 0.6911(4)
H2 H 0.75410 -0.17610 0.70890
N2 N 0.6440(4) 0.1818(3) 0.4519(3)
C6 C 0.5898(6) 0.2026(7) 0.4717(5)
H3 H 0.55640 0.21540 0.44820
C7 C 0.7139(5) -0.0314(5) 0.6970(4)
H4 H 0.69520 0.00160 0.71750
C8 C 0.7295(4) 0.0417(5) 0.6105(5)
O6 O 0.6666(5) -0.0600(6) 0.8095(4)
C9 C 0.6956(7) -0.0986(6) 0.7821(5)
C10 C 0.8009(5) -0.1816(5) 0.6046(5)
O7 O 0.8745(14) 0.0579(11) 0.50000
N3 N 0.50000 0.00000 0.3764(9)
C11 C 0.5293(12) 0.054(1) 0.4118(10)
H5 H 0.56310 0.03810 0.43550
H6 H 0.49790 0.07250 0.43680
H7 H 0.54530 0.08530 0.38510
C12 C 0.5529(12) -0.0249(17) 0.3383(13)
H8 H 0.58590 -0.04070 0.36300
H9 H 0.56900 0.00840 0.31400
H10 H 0.53740 -0.05820 0.31370
Zn1I Zn 0.66891(5) -0.18447(5) 0.12678(4)
Zn1L Zn 0.83109(5) -0.31553(5) 0.62678(4)
Zn1O Zn 0.68447(5) 0.16891(5) 0.62678(4)
Zn1F Zn 0.68447(5) 0.16891(5) 0.37322(4)
Zn1E Zn 0.83109(5) -0.31553(5) 0.37322(4)
Zn2B Zn 0.87965(8) -0.22870(7) 0.50000
O1I O 0.7508(3) 0.0530(4) 0.4382(3)
O2I O 0.7060(4) -0.1522(4) 0.1955(3)
O3I O 0.8320(3) -0.1739(4) 0.4408(3)
O3C O 0.8261(3) 0.1680(4) 0.5592(3)
O3J O 0.8261(3) 0.1680(4) 0.4408(3)
O4I O 0.7892(4) -0.2350(5) 0.3755(4)
O4L O 0.7108(4) -0.2650(5) 0.8755(4)
O4E O 0.7108(4) -0.2650(5) 0.1245(4)
O5I O 0.7002(4) 0.0822(5) 0.3575(4)
O5N O 0.5822(4) -0.2002(5) 0.8575(4)
O5G O 0.5822(4) -0.2002(5) 0.1425(4)
C1I C 0.7663(4) -0.0705(4) 0.3922(4)
H1I H 0.78350 -0.06360 0.42940
C2I C 0.7365(5) -0.0217(5) 0.3615(4)
C3I C 0.7197(5) -0.0895(5) 0.2770(4)
C4I C 0.7697(5) -0.1286(5) 0.3663(4)
C5I C 0.7486(5) -0.1371(5) 0.3089(4)
H2I H 0.75410 -0.17610 0.29110
N2I N 0.6440(4) 0.1818(3) 0.5481(3)
N2G N 0.6818(4) -0.1440(3) 0.9519(3)
N2N N 0.6818(4) -0.1440(3) 0.0481(3)
C6I C 0.5898(6) 0.2026(7) 0.5283(5)
H3I H 0.55640 0.21540 0.55180
C7I C 0.7139(5) -0.0314(5) 0.3030(4)
H4I H 0.69520 0.00160 0.28250
C8I C 0.7295(4) 0.0417(5) 0.3895(5)
O6I O 0.6666(5) -0.0600(6) 0.1905(4)
C9I C 0.6956(7) -0.0986(6) 0.2179(5)
C10I C 0.8009(5) -0.1816(5) 0.3954(5)
C11A C 0.4707(12) -0.054(1) 0.4118(10)
H5A H 0.43690 -0.03810 0.43550
H6A H 0.50210 -0.07250 0.43680
H7A H 0.45470 -0.08530 0.38510
C12A C 0.4471(12) 0.0249(17) 0.3383(13)
H8A H 0.41410 0.04070 0.36300
H9A H 0.43100 -0.00840 0.31400
H10A H 0.46260 0.05820 0.31370
#END
