
#######################################################################
#
#                 Cambridge Crystallographic Data Centre
#                                CCDC
#
#######################################################################
#
# If this CIF has been generated from an entry in the Cambridge
# Structural Database, then it will include bibliographic, chemical,
# crystal, experimental, refinement or atomic coordinate data resulting
# from the CCDC's data processing and validation procedures.
#
#######################################################################

data_CSD_CIF_ZASJAH
_audit_creation_date 2017-02-21
_audit_creation_method CSD-ConQuest-V1
_database_code_CSD ZASJAH
_database_code_depnum_ccdc_archive 'CCDC 1529443'
_chemical_formula_sum 'C22 H22 N4 O19 Pb1 U2'
_chemical_formula_moiety
;
(C22 H18 N3 O19 Pb1 U2 1-)n,H4 N1 1+
;
_journal_coden_Cambridge 1147
_journal_volume 17
_journal_year 2017
_journal_page_first 963
_journal_name_full 'Cryst.Growth Des. '
loop_
_publ_author_name
"P.Thuery"
"J.Harrowfield"
_chemical_name_systematic
;
catena-[ammonium 
(\m-nitrato)-bis(\m-tricarballylato)-(2,2'-bipyridine)-tetraoxo-lead(ii)-di-ur
anium]
;
_cell_volume   1488.498
_exptl_crystal_colour 'light yellow'
_exptl_crystal_density_diffrn 2.967
_exptl_crystal_description 'platelet'
_diffrn_ambient_temperature 150
#These two values have been output from a single CSD field.
_refine_ls_R_factor_gt 0.0301
_refine_ls_wR_factor_gt 0.0301
_symmetry_cell_setting triclinic
_symmetry_space_group_name_H-M 'P -1'
_symmetry_Int_Tables_number 2
loop_
_symmetry_equiv_pos_site_id
_symmetry_equiv_pos_as_xyz
1 x,y,z
2 -x,-y,-z
_cell_length_a 10.0187(5)
_cell_length_b 13.1772(10)
_cell_length_c 13.7467(10)
_cell_angle_alpha 62.229(3)
_cell_angle_beta 88.065(4)
_cell_angle_gamma 69.737(4)
_cell_formula_units_Z 2
loop_
_atom_type_symbol
_atom_type_radius_bond
C 0.68
H 0.23
N 0.68
O 0.68
Pb 1.46
U 1.96
loop_
_atom_site_label
_atom_site_type_symbol
_atom_site_fract_x
_atom_site_fract_y
_atom_site_fract_z
U1 U 0.86431(2) 0.77934(2) 0.44942(2)
U2 U 0.54826(2) 0.40335(2) 0.77131(2)
Pb1 Pb 0.81392(3) 0.63776(3) 0.79588(3)
O1 O 0.9237(5) 0.6162(4) 0.5353(4)
O2 O 0.8072(5) 0.9415(4) 0.3651(4)
O3 O 0.5820(5) 0.3776(4) 0.6555(4)
O4 O 0.5111(5) 0.4355(4) 0.8821(4)
O5 O 0.6124(5) 0.8010(4) 0.4439(4)
O6 O 0.6999(4) 0.8120(4) 0.5807(4)
O7 O -0.0154(5) 0.8018(4) 0.5860(4)
O8 O 0.1125(5) 0.7685(4) 0.4633(4)
O9 O 0.5569(5) 0.6140(4) 0.6621(5)
O10 O 0.3502(5) 0.5959(4) 0.6469(5)
O11 O 0.6874(5) 0.6120(4) 0.2329(4)
O12 O 0.5065(5) 0.7841(4) 0.1266(4)
O13 O 1.2326(5) 0.7730(4) 0.1164(5)
O14 O 1.2092(5) 0.5946(4) 0.2108(4)
O15 O 0.9948(5) 0.7469(5) 0.3042(4)
O16 O 0.7720(5) 0.7608(5) 0.3004(4)
O17 O 0.7851(6) 0.4571(5) 0.9910(5)
O18 O 0.8669(5) 0.5900(4) 0.9934(5)
O19 O 0.8879(6) 0.4216(5) 1.1483(5)
N1 N 0.5862(6) 0.7514(5) 0.8294(5)
N2 N 0.8131(6) 0.8271(5) 0.7893(5)
N3 N 0.8455(6) 0.4894(6) 1.0448(6)
C1 C 0.5919(7) 0.8224(6) 0.5253(6)
C2 C 0.4413(6) 0.8693(6) 0.5473(6)
H1 H 0.39330 0.95780 0.49190
H2 H 0.44530 0.86280 0.62190
C3 C 0.3524(6) 0.7991(6) 0.5420(6)
H3 H 0.34580 0.81050 0.46480
C4 C 0.1996(7) 0.8492(6) 0.5635(6)
H4 H 0.20400 0.82990 0.64240
H5 H 0.16070 0.94040 0.51730
C5 C 0.0947(7) 0.8003(6) 0.5401(6)
C6 C 0.4243(7) 0.6612(6) 0.6217(6)
C7 C 0.6423(7) 0.7250(6) 0.1552(6)
C8 C 0.7441(7) 0.7806(6) 0.0949(6)
H6 H 0.70390 0.86990 0.07210
H7 H 0.75240 0.77330 0.02630
C9 C 0.8946(7) 0.7235(6) 0.1605(6)
H8 H 0.92950 0.63220 0.18940
C10 C 1.0005(7) 0.7703(6) 0.0872(6)
H9 H 0.99610 0.75770 0.02200
H10 H 0.96820 0.86050 0.05910
C11 C 1.1559(7) 0.7105(6) 0.1423(6)
C12 C 0.8889(7) 0.7449(6) 0.2608(6)
C13 C 0.4827(8) 0.7087(7) 0.8580(7)
H11 H 0.49690 0.63140 0.86250
C14 C 0.3532(9) 0.7696(8) 0.8822(7)
H12 H 0.28180 0.73430 0.90350
C15 C 0.3320(8) 0.8803(8) 0.8745(7)
H13 H 0.24500 0.92370 0.89110
C16 C 0.4357(8) 0.9298(7) 0.8427(6)
H14 H 0.41960 1.00890 0.83460
C17 C 0.5655(7) 0.8633(6) 0.8222(6)
C18 C 0.6866(7) 0.9081(6) 0.7928(6)
C19 C 0.6774(8) 1.0227(6) 0.7777(6)
H15 H 0.58820 1.07990 0.77800
C20 C 0.7956(8) 1.0523(7) 0.7626(7)
H16 H 0.79030 1.13010 0.75250
C21 C 0.9257(8) 0.9674(6) 0.7619(6)
H17 H 1.01080 0.98530 0.75290
C22 C 0.9270(7) 0.8592(7) 0.7746(6)
H18 H 1.01530 0.80230 0.77270
N4 N 0.7480(6) 0.4992(5) 0.4787(5)
H19 H 0.80860 0.52110 0.49770
H20 H 0.67830 0.51020 0.51830
H21 H 0.78180 0.42430 0.49540
H22 H 0.71120 0.54740 0.41000
U1* U -0.13569(2) 0.77934(2) 0.44942(2)
U2A U 0.45174(2) 0.59665(2) 0.22869(2)
U2A* U 1.45174(2) 0.59665(2) 0.22869(2)
Pb1A Pb 1.18608(3) 0.36224(3) 1.20412(3)
O7* O 0.9846(5) 0.8018(4) 0.5860(4)
O8* O 1.1125(5) 0.7685(4) 0.4633(4)
O11A O 0.3126(5) 0.3880(4) 0.7671(4)
O12A O 0.4935(5) 0.2159(4) 0.8734(4)
O13A O 0.7674(5) 0.2270(4) 0.8836(5)
O14A O 0.7908(5) 0.4054(4) 0.7892(4)
O19A O 1.1121(6) 0.5784(5) 0.8517(5)
#END
