
#######################################################################
#
#                 Cambridge Crystallographic Data Centre
#                                CCDC
#
#######################################################################
#
# If this CIF has been generated from an entry in the Cambridge
# Structural Database, then it will include bibliographic, chemical,
# crystal, experimental, refinement or atomic coordinate data resulting
# from the CCDC's data processing and validation procedures.
#
#######################################################################

data_CSD_CIF_ZASRIU
_audit_creation_date 1996-07-01
_audit_creation_method CSD-ConQuest-V1
_database_code_CSD ZASRIU
_chemical_formula_sum 'C20 H42 Bi2 N4 Ni1 O25'
_chemical_formula_moiety
;
(C20 H24 Bi2 N4 O16 2-)n,n(H12 Ni1 O6 2+),3n(H2 O1)
;
_journal_coden_Cambridge 367
_journal_volume 21
_journal_year 1995
_journal_page_first 311
_journal_name_full 'Koord.Khim.(Russ.)(Coord.Chem.) '
loop_
_publ_author_name
"M.A.Porai-Koshits"
"A.S.Antsyshkina"
"L.M.Shkol'nikova"
"G.G.Sadikov"
"R.L.Davidovich"
_chemical_name_systematic
;
catena-(Hexa-aqua-nickel(ii) 
bis(\m~3~-ethylenediamine-N,N,N',N'-tetra-acetato)-di-bismuth(iii) 
trihydrate)
;
_cell_volume    856.728
_exptl_crystal_density_diffrn 2.36
_exptl_special_details
;
Isostructural with the cobalt analogue

;
_diffrn_ambient_temperature ?
_diffrn_special_details
;
The study was carried out at room temperature,in the range 283-303K

;
_refine_special_details
;
The Ow5 atoms are disordered over two equally-occupied positions.

;
#These two values have been output from a single CSD field.
_refine_ls_R_factor_gt 0.039
_refine_ls_wR_factor_gt 0.039
_symmetry_cell_setting triclinic
_symmetry_space_group_name_H-M 'P -1'
_symmetry_Int_Tables_number 2
loop_
_symmetry_equiv_pos_site_id
_symmetry_equiv_pos_as_xyz
1 x,y,z
2 -x,-y,-z
_cell_length_a 8.600(2)
_cell_length_b 8.910(2)
_cell_length_c 12.260(2)
_cell_angle_alpha 81.19(2)
_cell_angle_beta 78.77(2)
_cell_angle_gamma 69.01(1)
_cell_formula_units_Z 1
loop_
_atom_type_symbol
_atom_type_radius_bond
C 0.68
H 0.23
Bi 1.72
N 0.68
Ni 1.50
O 0.68
loop_
_atom_site_label
_atom_site_type_symbol
_atom_site_fract_x
_atom_site_fract_y
_atom_site_fract_z
Ni1 Ni 0.00000 0.00000 0.00000
Bi1 Bi 0.4879(1) 0.22510 0.38230
N1 N 0.219(1) 0.220(1) 0.3467(7)
N2 N 0.362(1) 0.4768(9) 0.2701(7)
O1 O 0.525(1) 0.087(1) 0.2224(6)
O2 O 0.436(1) -0.078(1) 0.1518(7)
O3 O 0.337(1) 0.091(1) 0.5402(6)
O4 O 0.078(1) 0.134(2) 0.6361(7)
O5 O 0.319(1) 0.443(1) 0.4924(6)
O6 O 0.308(1) 0.694(1) 0.5079(8)
O7 O 0.696(1) 0.299(1) 0.2371(7)
O8 O 0.737(1) 0.434(1) 0.0724(7)
C1 C 0.417(1) 0.018(1) 0.2197(8)
C2 C 0.262(2) 0.058(1) 0.3068(8)
C3 C 0.176(2) 0.146(1) 0.5518(9)
C4 C 0.096(1) 0.238(1) 0.4505(8)
C5 C 0.329(1) 0.580(1) 0.4539(9)
C6 C 0.372(2) 0.607(1) 0.3278(9)
C7 C 0.645(2) 0.399(1) 0.1549(8)
C8 C 0.456(2) 0.476(1) 0.1562(8)
C9 C 0.157(1) 0.346(1) 0.2547(8)
C10 C 0.180(1) 0.502(1) 0.2693(7)
O9 O 0.003(1) 0.2277(9) -0.0462(6)
O10 O -0.030(1) 0.038(1) 0.1652(6)
O11 O -0.260(1) 0.093(1) 0.0099(7)
O12 O 0.289(1) 0.254(1) -0.0081(8)
O13 O 0.231(4) 0.372(3) 0.730(2)
H1 H 0.28(2) -0.02(1) 0.37(1)
H2 H 0.17(2) 0.06(1) 0.28(1)
H3 H 0.05(1) 0.35(1) 0.46(1)
H4 H 0.01(1) 0.20(1) 0.441(8)
H5 H 0.48(2) 0.61(1) 0.311(9)
H6 H 0.29(2) 0.71(1) 0.301(9)
H7 H 0.42(2) 0.41(1) 0.113(8)
H8 H 0.43(2) 0.58(1) 0.123(8)
H9 H 0.22(1) 0.31(1) 0.185(8)
H10 H 0.04(1) 0.37(1) 0.255(8)
H11 H 0.12(1) 0.54(1) 0.338(7)
H12 H 0.14(1) 0.58(1) 0.208(7)
H13 H 0.10(1) 0.21(2) -0.02(2)
H14 H -0.08(2) 0.30(1) -0.01(1)
H15 H -0.04(2) -0.03(2) 0.22(1)
H16 H -0.11(3) 0.10(2) 0.19(2)
H17 H -0.33(4) 0.08(5) 0.08(3)
H18 H -0.30(5) 0.09(2) -0.06(2)
H19 H 0.28(5) 0.35(4) -0.02(3)
H20 H 0.39(5) 0.16(4) -0.05(3)
H21 H 0.28(6) 0.40(5) 0.66(3)
H22 H 0.13(5) 0.49(4) 0.75(3)
O9A O -0.003(1) -0.2277(9) 0.0462(6)
O10A O 0.030(1) -0.038(1) -0.1652(6)
O11A O 0.260(1) -0.093(1) -0.0099(7)
O3A O 0.663(1) -0.091(1) 0.4598(6)
Bi1A Bi 0.5121(1) -0.22510 0.61770
O6A O 0.692(1) 0.306(1) 0.4921(8)
H13A H -0.10(1) -0.21(2) 0.02(2)
H14A H 0.08(2) -0.30(1) 0.01(1)
H15A H 0.04(2) 0.03(2) -0.22(1)
H16A H 0.11(3) -0.10(2) -0.19(2)
H17A H 0.33(4) -0.08(5) -0.08(3)
H18A H 0.30(5) -0.09(2) 0.06(2)
C3A C 0.824(2) -0.146(1) 0.4482(9)
N1A N 0.781(1) -0.220(1) 0.6533(7)
N2A N 0.638(1) -0.4768(9) 0.7299(7)
O1A O 0.475(1) -0.087(1) 0.7776(6)
O5A O 0.681(1) -0.443(1) 0.5076(6)
O6* O 0.308(1) -0.306(1) 0.5079(8)
O7A O 0.304(1) -0.299(1) 0.7629(7)
Bi1A* Bi 0.5121(1) 0.77490 0.61770
O4A O 0.922(1) -0.134(2) 0.3639(7)
C4A C 0.904(1) -0.238(1) 0.5495(8)
C2A C 0.738(2) -0.058(1) 0.6932(8)
C9A C 0.843(1) -0.346(1) 0.7453(8)
C6A C 0.628(2) -0.607(1) 0.6722(9)
C8A C 0.544(2) -0.476(1) 0.8438(8)
C10A C 0.820(1) -0.502(1) 0.7307(7)
C1A C 0.583(1) -0.018(1) 0.7803(8)
C5A C 0.671(1) -0.580(1) 0.5461(9)
C7A C 0.355(2) -0.399(1) 0.8451(8)
H3A H 0.95(1) -0.35(1) 0.54(1)
H4A H 0.99(1) -0.20(1) 0.559(8)
H1A H 0.72(2) 0.02(1) 0.63(1)
H2A H 0.83(2) -0.06(1) 0.72(1)
H9A H 0.78(1) -0.31(1) 0.815(8)
H10A H 0.96(1) -0.37(1) 0.745(8)
H5A H 0.52(2) -0.61(1) 0.689(9)
H6A H 0.71(2) -0.71(1) 0.699(9)
H7A H 0.58(2) -0.41(1) 0.887(8)
H8A H 0.57(2) -0.58(1) 0.877(8)
H11A H 0.88(1) -0.54(1) 0.662(7)
H12A H 0.86(1) -0.58(1) 0.792(7)
O2A O 0.564(1) 0.078(1) 0.8482(7)
O6A* O 0.692(1) -0.694(1) 0.4921(8)
O8A O 0.263(1) -0.434(1) 0.9276(7)
Bi1* Bi 0.4879(1) -0.77490 0.38230
#END
