
#######################################################################
#
#                 Cambridge Crystallographic Data Centre
#                                CCDC
#
#######################################################################
#
# If this CIF has been generated from an entry in the Cambridge
# Structural Database, then it will include bibliographic, chemical,
# crystal, experimental, refinement or atomic coordinate data resulting
# from the CCDC's data processing and validation procedures.
#
#######################################################################

data_CSD_CIF_ZASREQ
_audit_creation_date 1996-07-01
_audit_creation_method CSD-ConQuest-V1
_database_code_CSD ZASREQ
_chemical_formula_sum 'C20 H42 Bi2 Co1 N4 O25'
_chemical_formula_moiety
;
(C20 H24 Bi2 N4 O16 2-)n,n(H12 Co1 O6 2+),3n(H2 O1)
;
_journal_coden_Cambridge 367
_journal_volume 21
_journal_year 1995
_journal_page_first 311
_journal_name_full 'Koord.Khim.(Russ.)(Coord.Chem.) '
loop_
_publ_author_name
"M.A.Porai-Koshits"
"A.S.Antsyshkina"
"L.M.Shkol'nikova"
"G.G.Sadikov"
"R.L.Davidovich"
_chemical_name_systematic
;
catena-(Hexa-aqua-cobalt(ii) 
bis(\m~3~-ethylenediamine-N,N,N',N'-tetra-acetato)-di-bismuth(iii) 
trihydrate)
;
_cell_volume    858.607
_exptl_crystal_density_diffrn 2.35
_exptl_special_details
;
Isostructural with the nickel analogue

;
_diffrn_ambient_temperature ?
_diffrn_special_details
;
The study was carried out at room temperature,in the range 283-303K

;
_refine_special_details
;
The Ow5 atoms are disordered over two equally-occupied positions.

;
#These two values have been output from a single CSD field.
_refine_ls_R_factor_gt 0.052
_refine_ls_wR_factor_gt 0.052
_symmetry_cell_setting triclinic
_symmetry_space_group_name_H-M 'P -1'
_symmetry_Int_Tables_number 2
loop_
_symmetry_equiv_pos_site_id
_symmetry_equiv_pos_as_xyz
1 x,y,z
2 -x,-y,-z
_cell_length_a 8.618(5)
_cell_length_b 8.914(6)
_cell_length_c 12.256(6)
_cell_angle_alpha 80.99(3)
_cell_angle_beta 79.46(3)
_cell_angle_gamma 68.77(3)
_cell_formula_units_Z 1
loop_
_atom_type_symbol
_atom_type_radius_bond
C 0.68
H 0.23
Bi 1.75
Co 1.33
N 0.68
O 0.68
loop_
_atom_site_label
_atom_site_type_symbol
_atom_site_fract_x
_atom_site_fract_y
_atom_site_fract_z
Co1 Co 0.00000 0.00000 0.00000
Bi1 Bi 0.48680 0.22640 0.38280
N1 N 0.2229(8) 0.2214(8) 0.3430(5)
N2 N 0.3607(8) 0.4782(8) 0.2698(5)
O1 O 0.5251(8) 0.0891(8) 0.2221(5)
O2 O 0.4385(9) -0.0794(8) 0.1539(6)
O3 O 0.3355(8) 0.0935(9) 0.5390(6)
O4 O 0.076(1) 0.140(1) 0.6333(7)
O5 O 0.3181(9) 0.4460(9) 0.4920(5)
O6 O 0.308(1) 0.695(1) 0.5076(7)
O7 O 0.6943(8) 0.2996(8) 0.2393(6)
O8 O 0.737(1) 0.4349(8) 0.0749(7)
C1 C 0.4179(9) 0.0217(9) 0.2202(6)
C2 C 0.261(1) 0.062(1) 0.3041(7)
C3 C 0.176(1) 0.150(1) 0.5476(7)
C4 C 0.0969(9) 0.2429(9) 0.4439(6)
C5 C 0.329(1) 0.582(1) 0.4523(7)
C6 C 0.373(1) 0.608(1) 0.3261(8)
C7 C 0.644(1) 0.4008(9) 0.1571(7)
C8 C 0.456(1) 0.477(1) 0.1559(7)
C9 C 0.157(1) 0.350(1) 0.2520(6)
C10 C 0.180(1) 0.5051(9) 0.2663(7)
O9 O 0.0012(9) 0.2316(8) -0.0416(6)
O10 O -0.0363(8) 0.0338(8) 0.1702(5)
O11 O -0.2649(8) 0.0954(8) 0.0092(6)
O12 O 0.293(1) 0.2540(9) -0.0103(7)
O13 O 0.236(3) 0.365(3) 0.727(1)
H1 H 0.28(1) -0.02(1) 0.367(7)
H2 H 0.17(1) 0.06(1) 0.270(7)
H3 H 0.048(9) 0.356(9) 0.455(6)
H4 H 0.011(9) 0.204(9) 0.434(6)
H5 H 0.48(1) 0.61(1) 0.309(8)
H6 H 0.29(1) 0.71(1) 0.299(8)
H7 H 0.42(1) 0.42(1) 0.112(7)
H8 H 0.43(1) 0.59(1) 0.123(7)
H9 H 0.22(1) 0.31(1) 0.181(6)
H10 H 0.04(1) 0.37(1) 0.254(6)
H11 H 0.11(1) 0.55(1) 0.335(7)
H12 H 0.14(1) 0.58(1) 0.205(7)
H13 H 0.11(1) 0.21(1) -0.012(8)
H14 H -0.08(1) 0.307(9) -0.006(8)
H15 H -0.04(1) -0.039(9) 0.225(7)
H16 H -0.12(1) 0.11(1) 0.190(8)
H17 H -0.33(1) 0.07(1) 0.071(8)
H18 H -0.30(1) 0.09(1) -0.060(8)
H19 H 0.29(1) 0.36(1) -0.048(8)
H20 H 0.38(1) 0.18(1) -0.043(9)
H21 H 0.27(2) 0.40(2) 0.65(1)
H22 H 0.14(2) 0.48(2) 0.77(1)
O9A O -0.0012(9) -0.2316(8) 0.0416(6)
O10A O 0.0363(8) -0.0338(8) -0.1702(5)
O11A O 0.2649(8) -0.0954(8) -0.0092(6)
O3A O 0.6645(8) -0.0935(9) 0.4610(6)
Bi1A Bi 0.51320 -0.22640 0.61720
O6A O 0.692(1) 0.305(1) 0.4924(7)
H13A H -0.11(1) -0.21(1) 0.012(8)
H14A H 0.08(1) -0.307(9) 0.006(8)
H15A H 0.04(1) 0.039(9) -0.225(7)
H16A H 0.12(1) -0.11(1) -0.190(8)
H17A H 0.33(1) -0.07(1) -0.071(8)
H18A H 0.30(1) -0.09(1) 0.060(8)
C3A C 0.824(1) -0.150(1) 0.4524(7)
N1A N 0.7771(8) -0.2214(8) 0.6570(5)
N2A N 0.6393(8) -0.4782(8) 0.7302(5)
O1A O 0.4749(8) -0.0891(8) 0.7779(5)
O5A O 0.6819(9) -0.4460(9) 0.5080(5)
O6* O 0.308(1) -0.305(1) 0.5076(7)
O7A O 0.3057(8) -0.2996(8) 0.7607(6)
Bi1A* Bi 0.51320 0.77360 0.61720
O4A O 0.924(1) -0.140(1) 0.3667(7)
C4A C 0.9031(9) -0.2429(9) 0.5561(6)
C2A C 0.739(1) -0.062(1) 0.6959(7)
C9A C 0.843(1) -0.350(1) 0.7480(6)
C6A C 0.627(1) -0.608(1) 0.6739(8)
C8A C 0.544(1) -0.477(1) 0.8441(7)
C10A C 0.820(1) -0.5051(9) 0.7337(7)
C1A C 0.5821(9) -0.0217(9) 0.7798(6)
C5A C 0.671(1) -0.582(1) 0.5477(7)
C7A C 0.356(1) -0.4008(9) 0.8429(7)
H3A H 0.952(9) -0.356(9) 0.545(6)
H4A H 0.989(9) -0.204(9) 0.566(6)
H1A H 0.72(1) 0.02(1) 0.633(7)
H2A H 0.83(1) -0.06(1) 0.730(7)
H9A H 0.78(1) -0.31(1) 0.819(6)
H10A H 0.96(1) -0.37(1) 0.746(6)
H5A H 0.52(1) -0.61(1) 0.691(8)
H6A H 0.71(1) -0.71(1) 0.701(8)
H7A H 0.58(1) -0.42(1) 0.888(7)
H8A H 0.57(1) -0.59(1) 0.877(7)
H11A H 0.89(1) -0.55(1) 0.665(7)
H12A H 0.86(1) -0.58(1) 0.795(7)
O2A O 0.5615(9) 0.0794(8) 0.8461(6)
O6A* O 0.692(1) -0.695(1) 0.4924(7)
O8A O 0.263(1) -0.4349(8) 0.9251(7)
Bi1* Bi 0.48680 -0.77360 0.38280
#END
