
#######################################################################
#
#                 Cambridge Crystallographic Data Centre
#                                CCDC
#
#######################################################################
#
# If this CIF has been generated from an entry in the Cambridge
# Structural Database, then it will include bibliographic, chemical,
# crystal, experimental, refinement or atomic coordinate data resulting
# from the CCDC's data processing and validation procedures.
#
#######################################################################

data_CSD_CIF_ZATXIE
_audit_creation_date 2017-07-04
_audit_creation_method CSD-ConQuest-V1
_database_code_CSD ZATXIE
_database_code_depnum_ccdc_archive 'CCDC 1549967'
_chemical_formula_sum 'C32 H50 Co4 O35'
_chemical_formula_moiety
;
(C32 H32 Co3 O26 2-)n,H12 Co1 O6 2+,3(H2 O1)
;
_journal_coden_Cambridge 1295
_journal_volume 85
_journal_year 2017
_journal_page_first 89
_journal_name_full 'Inorg.Chem.Commun. '
loop_
_publ_author_name
"Ling Qin"
"Hong-Zhe Chen"
"Yan-Qing Wang"
"Tong-Qi Ye"
"He-Gen Zheng"
_chemical_name_systematic
;
catena-[hexa-aqua-cobalt(ii) 
bis(\m-[1,1'-biphenyl]-3,3',5,5'-tetracarboxylato)-deca-aqua-tri-cobalt(ii) 
trihydrate]
;
_cell_volume   4519.928
_exptl_crystal_colour 'red'
_exptl_crystal_density_diffrn 1.808
_exptl_crystal_description 'block'
_diffrn_ambient_temperature 293
#These two values have been output from a single CSD field.
_refine_ls_R_factor_gt 0.0493
_refine_ls_wR_factor_gt 0.0493
_symmetry_cell_setting monoclinic
_symmetry_space_group_name_H-M 'P 21/c'
_symmetry_Int_Tables_number 14
loop_
_symmetry_equiv_pos_site_id
_symmetry_equiv_pos_as_xyz
1 x,y,z
2 -x,1/2+y,1/2-z
3 -x,-y,-z
4 x,-1/2-y,-1/2+z
_cell_length_a 23.635(2)
_cell_length_b 7.3851(7)
_cell_length_c 30.453(2)
_cell_angle_alpha 90
_cell_angle_beta 121.752(5)
_cell_angle_gamma 90
_cell_formula_units_Z 4
loop_
_atom_type_symbol
_atom_type_radius_bond
C 0.68
H 0.23
Co 1.26
O 0.68
loop_
_atom_site_label
_atom_site_type_symbol
_atom_site_fract_x
_atom_site_fract_y
_atom_site_fract_z
C1 C 0.94982(16) 0.5826(5) 0.80081(13)
C2 C 1.08017(16) 0.6056(5) 0.67175(13)
C3 C 1.01499(16) 0.5579(5) 0.71098(13)
C4 C 0.56078(17) 0.5843(5) 0.80890(13)
H1 H 0.59980 0.55080 0.81070
C5 C 0.45220(16) 0.5934(5) 0.66537(13)
H2 H 0.41180 0.56840 0.66250
C6 C 0.63845(16) 0.6945(5) 0.67931(13)
C7 C 0.96024(17) 0.5172(5) 0.66201(13)
H3 H 0.91980 0.48760 0.65850
C8 C 0.39511(16) 0.5523(5) 0.56959(13)
C9 C 0.50784(17) 0.6317(5) 0.71368(13)
C10 C 0.50443(17) 0.6292(5) 0.76105(12)
C11 C 1.06828(17) 0.5098(5) 0.80601(13)
H4 H 1.10800 0.48330 0.80790
C12 C 0.44399(17) 0.6767(5) 0.80392(13)
C13 C 1.00686(16) 0.5431(5) 0.84782(13)
H5 H 1.00540 0.54060 0.87770
C14 C 0.44639(16) 0.6738(5) 0.75941(13)
H6 H 0.40840 0.70240 0.72790
C15 C 0.95229(16) 0.5876(5) 0.75647(13)
H7 H 0.91400 0.61530 0.72510
C16 C 0.50020(16) 0.6356(5) 0.85099(13)
H8 H 0.49880 0.63890 0.88090
C17 C 1.07434(17) 0.6043(5) 0.71472(13)
H9 H 1.11100 0.63520 0.74680
C18 C 0.45613(16) 0.5921(5) 0.62157(12)
C19 C 1.02561(17) 0.5634(5) 0.62358(13)
H10 H 1.02920 0.56400 0.59460
C20 C 0.96528(16) 0.5200(5) 0.61886(13)
C21 C 0.57255(16) 0.6665(5) 0.67369(13)
C22 C 1.06613(17) 0.5074(5) 0.85041(13)
C23 C 0.51647(16) 0.6274(5) 0.62596(13)
H11 H 0.51940 0.62480 0.59670
C24 C 0.55895(17) 0.5894(5) 0.85363(13)
C25 C 1.01138(17) 0.5518(5) 0.75800(13)
C26 C 0.88572(16) 0.6197(5) 0.79835(14)
C27 C 0.38044(17) 0.7333(5) 0.80043(13)
C28 C 1.12800(17) 0.4686(5) 0.90180(13)
C29 C 1.14476(17) 0.6546(5) 0.67770(13)
C30 C 0.62084(17) 0.5498(5) 0.90451(13)
C31 C 0.56781(17) 0.6692(5) 0.71725(13)
H12 H 0.60520 0.69650 0.74920
C32 C 0.90531(17) 0.4811(5) 0.56644(13)
Co1 Co 0.75204(2) 0.68360(7) 0.688792(17)
Co2 Co 0.75443(2) 0.46131(7) 0.498883(16)
Co3 Co 1.25576(2) 0.73154(7) 0.689905(17)
O1 O 0.83677(13) 0.6641(5) 0.75555(10)
O2 O 0.88386(13) 0.6023(5) 0.83826(10)
O3 O 1.12691(13) 0.4968(5) 0.94192(10)
O4 O 1.17889(12) 0.4146(4) 0.90273(9)
O5 O 0.85060(12) 0.4709(4) 0.56287(10)
O6 O 0.91439(14) 0.4648(6) 0.52915(11)
O7 O 1.15056(12) 0.6723(4) 0.63917(9)
O8 O 1.19574(12) 0.6768(4) 0.72273(9)
O9 O 0.64383(12) 0.6888(4) 0.64016(9)
O10 O 0.68998(12) 0.7187(4) 0.72328(9)
O11 O 0.40280(13) 0.5358(4) 0.53156(10)
O12 O 0.34097(12) 0.5419(4) 0.56713(9)
O13 O 0.67117(13) 0.4925(4) 0.9047(1)
O14 O 0.62126(13) 0.5828(4) 0.94536(10)
O15 O 0.33528(12) 0.7970(4) 0.75799(10)
O16 O 0.37609(14) 0.7224(4) 0.83954(11)
O17 O 0.74312(13) 0.3988(4) 0.68769(10)
H13 H 0.75900 0.36040 0.71830
H14 H 0.70230 0.36980 0.66920
O18 O 0.77878(16) 0.6604(4) 0.63627(11)
H15 H 0.75890 0.57030 0.61680
H16 H 0.76800 0.75640 0.61820
O19 O 0.76470(16) 0.9625(4) 0.68828(11)
H17 H 0.72690 1.01290 0.66990
H18 H 0.78360 1.00270 0.71900
O20 O 0.74486(14) 0.7372(4) 0.50267(11)
H19 H 0.70460 0.76240 0.49210
H20 H 0.76960 0.77190 0.53380
O21 O 0.71974(13) 0.4336(4) 0.55108(10)
H21 H 0.67790 0.45000 0.53480
H22 H 0.71340 0.32420 0.55610
O22 O 0.76075(15) 0.1860(4) 0.49320(11)
H23 H 0.78770 0.14240 0.52300
H24 H 0.72250 0.13950 0.48130
O23 O 0.79119(13) 0.4899(4) 0.44832(10)
H25 H 0.83340 0.49150 0.46740
H26 H 0.78620 0.59810 0.43740
O24 O 1.27784(15) 0.7481(4) 0.63315(11)
H27 H 1.31860 0.77630 0.64680
H28 H 1.27070 0.64620 0.61820
O25 O 1.28533(18) 0.4603(4) 0.69775(12)
H29 H 1.28560 0.41390 0.72340
H30 H 1.25800 0.40300 0.67040
O26 O 1.23604(12) 1.0141(4) 0.68386(10)
H31 H 1.20170 1.03700 0.65460
H32 H 1.22940 1.04630 0.70760
Co4 Co 0.50000 0.50000 1.00000
O27 O 0.42555(17) 0.4850(4) 0.92158(11)
H33 H 0.40510 0.38480 0.91560
H34 H 0.39830 0.57180 0.91400
O28 O 0.52710(18) 0.7590(5) 0.98751(14)
H35 H 0.55950 0.79920 1.01580
H36 H 0.53870 0.75040 0.96550
O29 O 0.57043(17) 0.3857(5) 0.98835(13)
H37 H 0.56990 0.27140 0.99130
H38 H 0.56160 0.41210 0.95820
Co5 Co 1.00000 0.50000 1.00000
O30 O 0.9162(3) 0.3342(9) 0.95676(19)
H39 H 0.89130 0.37930 0.92690
H40 H 0.92880 0.22910 0.95400
O31 O 1.0266(2) 0.3087(7) 1.05787(16)
H41 H 1.06330 0.33960 1.08460
H42 H 0.99660 0.30350 1.06520
O32 O 1.0539(2) 0.3579(6) 0.97656(17)
H43 H 1.09250 0.40390 0.99030
H44 H 1.05710 0.24820 0.98610
O33 O 0.4114(2) 0.9227(6) 0.93862(15)
H45 H 0.41940 0.90040 0.91500
H46 H 0.37900 0.99640 0.92730
O34 O 0.28612(17) 0.5966(5) 0.91187(13)
H47 H 0.32170 0.59110 0.91140
H48 H 0.26870 0.70080 0.90180
O35 O 0.7460(3) 0.7766(6) 0.38453(18)
H49 H 0.72300 0.69740 0.36170
H50 H 0.73390 0.88170 0.37150
Co2B Co 0.24557(2) 0.53869(7) 0.501117(16)
Co3* Co 0.25576(2) 0.73154(7) 0.689905(17)
O12B O 0.65903(12) 0.4581(4) 0.43287(9)
O15* O 1.33528(12) 0.7970(4) 0.75799(10)
O27B O 0.57445(17) 0.5150(4) 1.07842(11)
H33B H 0.59490 0.61520 1.08440
H34B H 0.60170 0.42820 1.08600
O28B O 0.47290(18) 0.2410(5) 1.01249(14)
H35B H 0.44050 0.20080 0.98420
H36B H 0.46130 0.24960 1.03450
O29B O 0.42957(17) 0.6143(5) 1.01165(13)
H37B H 0.43010 0.72860 1.00870
H38B H 0.43840 0.58790 1.04180
O30B O 1.0838(3) 0.6658(9) 1.04324(19)
H39B H 1.10870 0.62070 1.07310
H40B H 1.07120 0.77090 1.04600
O31B O 0.9734(2) 0.6913(7) 0.94213(16)
H41B H 0.93670 0.66040 0.91540
H42B H 1.00340 0.69650 0.93480
O32B O 0.9461(2) 0.6421(6) 1.02344(17)
H43B H 0.90750 0.59610 1.00970
H44B H 0.94290 0.75180 1.01390
#END
