
#######################################################################
#
#                 Cambridge Crystallographic Data Centre
#                                CCDC
#
#######################################################################
#
# If this CIF has been generated from an entry in the Cambridge
# Structural Database, then it will include bibliographic, chemical,
# crystal, experimental, refinement or atomic coordinate data resulting
# from the CCDC's data processing and validation procedures.
#
#######################################################################

data_CSD_CIF_ZAYBAE
_audit_creation_date 2012-07-11
_audit_creation_method CSD-ConQuest-V1
_database_code_CSD ZAYBAE
_database_code_depnum_ccdc_archive 'CCDC 859162'
_chemical_formula_sum 'C26 H40 Cl1 Cu4 Mo12 N32 O40 P1 S8'
_chemical_formula_moiety
;
(C26 H40 Cl1 Cu4 N32 S8 3+)n,n(Mo12 O40 P1 3-)
;
_journal_coden_Cambridge 222
_journal_volume 41
_journal_year 2012
_journal_page_first 5468
_journal_name_full 'Dalton Trans. '
loop_
_publ_author_name
"Jinging Gong"
"Weisong Zhang"
"Yang Liu"
"Hengchao Zhang"
"Hailiang Hu"
"Zhenhui Kang"
_chemical_name_systematic
;
catena-((\m~4~-chloro)-bis(\m~4~-tetrakis(((1-methyl-1H-tetrazol-5-yl)sulfanyl
)methyl)methane)-tetra-copper(i) 
(\m~12~-phosphato)-tetracosakis(\m~2~-oxo)-dodecaoxo-dodeca-molybdenum)
;
_cell_volume   4109.806
_exptl_crystal_colour 'black'
_exptl_crystal_density_diffrn 2.561
_exptl_crystal_description 'block'
_diffrn_ambient_temperature 296
_refine_special_details
;
O10,O11 disordered by symmetry over two sites with occupancy 0.50.

;
#These two values have been output from a single CSD field.
_refine_ls_R_factor_gt 0.046
_refine_ls_wR_factor_gt 0.046
_symmetry_cell_setting tetragonal
_symmetry_space_group_name_H-M 'P 4 n c'
_symmetry_Int_Tables_number 104
loop_
_symmetry_equiv_pos_site_id
_symmetry_equiv_pos_as_xyz
1 x,y,z
2 -x,-y,z
3 -y,x,z
4 y,-x,z
5 1/2+x,1/2-y,1/2+z
6 1/2-x,1/2+y,1/2+z
7 1/2-y,1/2-x,1/2+z
8 1/2+y,1/2+x,1/2+z
_cell_length_a 14.6513(5)
_cell_length_b 14.6513(5)
_cell_length_c 19.1456(15)
_cell_angle_alpha 90
_cell_angle_beta 90
_cell_angle_gamma 90
_cell_formula_units_Z 2
loop_
_atom_type_symbol
_atom_type_radius_bond
C 0.68
H 0.23
Cl 0.99
Cu 1.32
Mo 1.38
N 0.68
O 0.68
P 1.05
S 1.02
loop_
_atom_site_label
_atom_site_type_symbol
_atom_site_fract_x
_atom_site_fract_y
_atom_site_fract_z
P1 P 0.50000 0.50000 0.8509(3)
Mo1 Mo 0.67060(6) 0.48952(7) 0.98309(6)
Mo2 Mo 0.68056(6) 0.66204(7) 0.85185(7)
Mo3 Mo 0.50972(8) 0.67235(9) 0.72176(6)
Cu1 Cu 0.46580(8) 0.33572(7) 0.41776(8)
Cl1 Cl 0.50000 0.50000 0.4028(3)
S1 S 0.52675(19) 0.12886(19) 0.32257(15)
S2 S 0.51829(17) 0.13225(16) 0.53001(13)
O1 O 0.7493(6) 0.4859(8) 1.0452(5)
O2 O 0.7653(6) 0.7365(6) 0.8571(8)
O3 O 0.5109(9) 0.7484(10) 0.6585(6)
O4 O 0.7183(6) 0.5785(8) 0.9198(7)
O5 O 0.7222(9) 0.5779(8) 0.7827(7)
O6 O 0.6017(7) 0.7123(8) 0.7823(6)
O7 O 0.4134(9) 0.5964(8) 0.6868(6)
O8 O 0.7114(6) 0.4000(6) 0.9203(7)
O9 O 0.5831(6) 0.4083(7) 1.0164(6)
O10 O 0.5580(8) 0.4361(8) 0.8983(7)
O11 O 0.5643(9) 0.5561(9) 0.8060(6)
N1 N 0.4391(6) 0.2940(5) 0.3211(4)
N2 N 0.3907(6) 0.3452(6) 0.2745(5)
N3 N 0.3776(8) 0.2992(8) 0.2192(5)
N4 N 0.4198(7) 0.2175(6) 0.2278(4)
N5 N 0.5751(5) 0.2949(5) 0.4737(4)
N6 N 0.6469(5) 0.3528(5) 0.4814(4)
N7 N 0.7038(5) 0.3210(5) 0.5257(5)
N8 N 0.6675(5) 0.2425(5) 0.5510(4)
C1 C 0.50000 0.00000 0.4248(6)
C2 C 0.4456(6) 0.0688(6) 0.3790(4)
H1 H 0.41360 0.11200 0.40850
H2 H 0.40100 0.03660 0.35080
C3 C 0.5714(5) 0.0500(6) 0.4700(4)
H3 H 0.61390 0.08180 0.43980
H4 H 0.60560 0.00540 0.49690
C4 C 0.4580(7) 0.2164(7) 0.2906(5)
C5 C 0.4160(15) 0.1447(11) 0.1762(6)
H5 H 0.36720 0.15650 0.14390
H6 H 0.40540 0.08750 0.19930
H7 H 0.47280 0.14200 0.15130
C6 C 0.5893(6) 0.2267(5) 0.5165(4)
C7 C 0.7119(9) 0.1928(9) 0.6072(7)
H8 H 0.69200 0.21670 0.65140
H9 H 0.77680 0.19950 0.60320
H10 H 0.69610 0.12930 0.60430
Mo1B Mo 0.51048(6) 0.67060(7) 0.98309(6)
Mo1C Mo 0.48952(6) 0.32940(7) 0.98309(6)
Mo1A Mo 0.32940(6) 0.51048(7) 0.98309(6)
Mo2C Mo 0.66204(6) 0.31944(7) 0.85185(7)
Mo2A Mo 0.31944(6) 0.33796(7) 0.85185(7)
Mo2B Mo 0.33796(6) 0.68056(7) 0.85185(7)
Mo3C Mo 0.67235(8) 0.49028(9) 0.72176(6)
Mo3A Mo 0.49028(8) 0.32765(9) 0.72176(6)
Mo3B Mo 0.32765(8) 0.50972(9) 0.72176(6)
Cu1A Cu 0.53420(8) 0.66428(7) 0.41776(8)
Cu1A* Cu 0.53420(8) -0.33572(7) 0.41776(8)
Cu1C Cu 0.33572(8) 0.53420(7) 0.41776(8)
Cu1B Cu 0.66428(8) 0.46580(7) 0.41776(8)
Cu1C* Cu 0.33572(8) -0.46580(7) 0.41776(8)
Cu1B* Cu -0.33572(8) 0.46580(7) 0.41776(8)
Cu1A** Cu -0.46580(8) 0.66428(7) 0.41776(8)
Cl1* Cl 0.50000 -0.50000 0.4028(3)
S1A S 0.47325(19) -0.12886(19) 0.32257(15)
S1C S 0.12886(19) 0.47325(19) 0.32257(15)
S1B S -0.12886(19) 0.52675(19) 0.32257(15)
S2A S 0.48171(17) -0.13225(16) 0.53001(13)
S2C S 0.13225(17) 0.48171(16) 0.53001(13)
S2B S -0.13225(17) 0.51829(16) 0.53001(13)
O1B O 0.5141(6) 0.7493(8) 1.0452(5)
O1C O 0.4859(6) 0.2507(8) 1.0452(5)
O1A O 0.2507(6) 0.5141(8) 1.0452(5)
O2C O 0.7365(6) 0.2347(6) 0.8571(8)
O2A O 0.2347(6) 0.2635(6) 0.8571(8)
O2B O 0.2635(6) 0.7653(6) 0.8571(8)
O3C O 0.7484(9) 0.4891(10) 0.6585(6)
O3A O 0.4891(9) 0.2516(10) 0.6585(6)
O3B O 0.2516(9) 0.5109(10) 0.6585(6)
O4B O 0.4215(6) 0.7183(8) 0.9198(7)
O4C O 0.5785(6) 0.2817(8) 0.9198(7)
O4A O 0.2817(6) 0.4215(8) 0.9198(7)
O5B O 0.4221(9) 0.7222(8) 0.7827(7)
O5C O 0.5779(9) 0.2778(8) 0.7827(7)
O5A O 0.2778(9) 0.4221(8) 0.7827(7)
O6C O 0.7123(7) 0.3983(8) 0.7823(6)
O6A O 0.3983(7) 0.2877(8) 0.7823(6)
O6B O 0.2877(7) 0.6017(8) 0.7823(6)
O7C O 0.5964(9) 0.5866(8) 0.6868(6)
O7A O 0.5866(9) 0.4036(8) 0.6868(6)
O7B O 0.4036(9) 0.4134(8) 0.6868(6)
O8B O 0.6000(6) 0.7114(6) 0.9203(7)
O8C O 0.4000(6) 0.2886(6) 0.9203(7)
O8A O 0.2886(6) 0.6000(6) 0.9203(7)
O9B O 0.5917(6) 0.5831(7) 1.0164(6)
O9A O 0.4169(6) 0.5917(7) 1.0164(6)
O9C O 0.4083(6) 0.4169(7) 1.0164(6)
O10C O 0.4361(8) 0.4420(8) 0.8983(7)
O10B O 0.5639(8) 0.5580(8) 0.8983(7)
O10A O 0.4420(8) 0.5639(8) 0.8983(7)
O11C O 0.5561(9) 0.4357(9) 0.8060(6)
O11A O 0.4357(9) 0.4439(9) 0.8060(6)
O11B O 0.4439(9) 0.5643(9) 0.8060(6)
N1A N 0.5609(6) -0.2940(5) 0.3211(4)
N1C N 0.2940(6) 0.5609(5) 0.3211(4)
N1B N -0.2940(6) 0.4391(5) 0.3211(4)
N1A* N 0.5609(6) 0.7060(5) 0.3211(4)
N2A N 0.6093(6) -0.3452(6) 0.2745(5)
N2C N 0.3452(6) 0.6093(6) 0.2745(5)
N2B N -0.3452(6) 0.3907(6) 0.2745(5)
N3A N 0.6224(8) -0.2992(8) 0.2192(5)
N3C N 0.2992(8) 0.6224(8) 0.2192(5)
N3B N -0.2992(8) 0.3776(8) 0.2192(5)
N4A N 0.5802(7) -0.2175(6) 0.2278(4)
N4C N 0.2175(7) 0.5802(6) 0.2278(4)
N4B N -0.2175(7) 0.4198(6) 0.2278(4)
N5A N 0.4249(5) -0.2949(5) 0.4737(4)
N5C N 0.2949(5) 0.4249(5) 0.4737(4)
N5B N -0.2949(5) 0.5751(5) 0.4737(4)
N5A* N 0.4249(5) 0.7051(5) 0.4737(4)
N6A N 0.3531(5) -0.3528(5) 0.4814(4)
N6C N 0.3528(5) 0.3531(5) 0.4814(4)
N6B N -0.3528(5) 0.6469(5) 0.4814(4)
N6B* N 0.6472(5) 0.6469(5) 0.4814(4)
N6B** N 0.6472(5) -0.3531(5) 0.4814(4)
N6A* N 0.3531(5) 0.6472(5) 0.4814(4)
N7A N 0.2962(5) -0.3210(5) 0.5257(5)
N7C N 0.3210(5) 0.2962(5) 0.5257(5)
N7B N -0.3210(5) 0.7038(5) 0.5257(5)
N8A N 0.3325(5) -0.2425(5) 0.5510(4)
N8C N 0.2425(5) 0.3325(5) 0.5510(4)
N8B N -0.2425(5) 0.6675(5) 0.5510(4)
C1B C 0.00000 0.50000 0.4248(6)
C2A C 0.5544(6) -0.0688(6) 0.3790(4)
C2C C 0.0688(6) 0.5544(6) 0.3790(4)
C2B C -0.0688(6) 0.4456(6) 0.3790(4)
H1A H 0.58640 -0.11200 0.40850
H1C H 0.11200 0.58640 0.40850
H1B H -0.11200 0.41360 0.40850
H2A H 0.59900 -0.03660 0.35080
H2C H 0.03660 0.59900 0.35080
H2B H -0.03660 0.40100 0.35080
C3A C 0.4286(5) -0.0500(6) 0.4700(4)
C3C C 0.0500(5) 0.4286(6) 0.4700(4)
C3B C -0.0500(5) 0.5714(6) 0.4700(4)
H3A H 0.38610 -0.08180 0.43980
H3C H 0.08180 0.38610 0.43980
H3B H -0.08180 0.61390 0.43980
H4A H 0.39440 -0.00540 0.49690
H4C H 0.00540 0.39440 0.49690
H4B H -0.00540 0.60560 0.49690
C4A C 0.5420(7) -0.2164(7) 0.2906(5)
C4C C 0.2164(7) 0.5420(7) 0.2906(5)
C4B C -0.2164(7) 0.4580(7) 0.2906(5)
C5A C 0.5840(15) -0.1447(11) 0.1762(6)
C5C C 0.1447(15) 0.5840(11) 0.1762(6)
C5B C -0.1447(15) 0.4160(11) 0.1762(6)
H5A H 0.63280 -0.15650 0.14390
H5C H 0.15650 0.63280 0.14390
H5B H -0.15650 0.36720 0.14390
H6A H 0.59460 -0.08750 0.19930
H6C H 0.08750 0.59460 0.19930
H6B H -0.08750 0.40540 0.19930
H7A H 0.52720 -0.14200 0.15130
H7C H 0.14200 0.52720 0.15130
H7B H -0.14200 0.47280 0.15130
C6A C 0.4107(6) -0.2267(5) 0.5165(4)
C6C C 0.2267(6) 0.4107(5) 0.5165(4)
C6B C -0.2267(6) 0.5893(5) 0.5165(4)
C7A C 0.2881(9) -0.1928(9) 0.6072(7)
C7C C 0.1928(9) 0.2881(9) 0.6072(7)
C7B C -0.1928(9) 0.7119(9) 0.6072(7)
H8A H 0.30800 -0.21670 0.65140
H8C H 0.21670 0.30800 0.65140
H8B H -0.21670 0.69200 0.65140
H9A H 0.22320 -0.19950 0.60320
H9C H 0.19950 0.22320 0.60320
H9B H -0.19950 0.77680 0.60320
H10A H 0.30390 -0.12930 0.60430
H10C H 0.12930 0.30390 0.60430
H10B H -0.12930 0.69610 0.60430
#END
