
#######################################################################
#
#                 Cambridge Crystallographic Data Centre
#                                CCDC
#
#######################################################################
#
# If this CIF has been generated from an entry in the Cambridge
# Structural Database, then it will include bibliographic, chemical,
# crystal, experimental, refinement or atomic coordinate data resulting
# from the CCDC's data processing and validation procedures.
#
#######################################################################

data_CSD_CIF_ZAYBEI
_audit_creation_date 2012-07-10
_audit_creation_method CSD-ConQuest-V1
_database_code_CSD ZAYBEI
_database_code_depnum_ccdc_archive 'CCDC 859163'
_chemical_formula_sum 'C26 H48 Cu4 Mo12 N32 O44 S8 Si1'
_chemical_formula_moiety
;
(C26 H44 Cu4 N32 O2 S8 4+)n,n(Mo12 O40 Si1 4-),2n(H2 O1)
;
_journal_coden_Cambridge 222
_journal_volume 41
_journal_year 2012
_journal_page_first 5468
_journal_name_full 'Dalton Trans. '
loop_
_publ_author_name
"Jinging Gong"
"Weisong Zhang"
"Yang Liu"
"Hengchao Zhang"
"Hailiang Hu"
"Zhenhui Kang"
_chemical_name_systematic
;
catena-((\m~6~-tetrakis(((1-methyl-1H-tetrazol-5-yl)sulfanyl)methyl)methane)-(
\m~2~-tetrakis(((1-methyl-1H-tetrazol-5-yl)sulfanyl)methyl)methane)-bis(\m~2~-
aqua)-tetra-copper(i) 
(\m~12~-silicato)-tetracosakis(\m~2~-oxo)-dodecaoxo-dodeca-molybdenum 
dihydrate)
;
_cell_volume  16112.046
_exptl_crystal_colour 'green/black'
_exptl_crystal_density_diffrn 2.637
_exptl_crystal_description 'block'
_diffrn_ambient_temperature 296
_refine_special_details
;
O1,O2,O3,O4 disordered by symmetry over two sites with occupancy 0.50.

;
#These two values have been output from a single CSD field.
_refine_ls_R_factor_gt 0.099
_refine_ls_wR_factor_gt 0.099
_symmetry_cell_setting tetragonal
_symmetry_space_group_name_H-M 'I -4 2 d'
_symmetry_Int_Tables_number 122
loop_
_symmetry_equiv_pos_site_id
_symmetry_equiv_pos_as_xyz
1 x,y,z
2 -x,-y,z
3 y,-x,-z
4 -y,x,-z
5 1/2-x,y,3/4-z
6 1/2+x,-y,3/4-z
7 1/2-y,-x,3/4+z
8 1/2+y,x,3/4+z
9 1/2+x,1/2+y,1/2+z
10 1/2-x,1/2-y,1/2+z
11 1/2+y,1/2-x,1/2-z
12 1/2-y,1/2+x,1/2-z
13 -x,1/2+y,1/4-z
14 x,1/2-y,1/4-z
15 -y,1/2-x,1/4+z
16 y,1/2+x,1/4+z
_cell_length_a 20.3235(14)
_cell_length_b 20.3235(14)
_cell_length_c 39.008(6)
_cell_angle_alpha 90
_cell_angle_beta 90
_cell_angle_gamma 90
_cell_formula_units_Z 8
loop_
_atom_type_symbol
_atom_type_radius_bond
C 0.68
H 0.23
Cu 1.32
Mo 1.29
N 0.68
O 0.68
S 1.02
Si 1.20
loop_
_atom_site_label
_atom_site_type_symbol
_atom_site_fract_x
_atom_site_fract_y
_atom_site_fract_z
Cu1 Cu 0.81961(13) 1.15901(13) 0.90300(7)
Cu2 Cu 0.85201(15) 1.33311(15) 0.91143(7)
S1 S 0.9454(3) 1.0774(3) 0.95925(14)
S2 S 0.9522(3) 1.0804(3) 0.85602(16)
S3 S 0.9195(3) 1.4590(3) 0.97184(14)
S4 S 0.9216(4) 1.4632(3) 0.86241(17)
O1 O 0.7653(7) 1.2613(8) 0.9114(4)
N1 N 0.8896(8) 1.1916(9) 0.9351(5)
N2 N 0.8921(8) 1.2578(10) 0.9402(5)
N3 N 0.9406(9) 1.2675(9) 0.9621(4)
N4 N 0.9639(9) 1.2098(9) 0.9710(4)
N5 N 0.8242(9) 1.1237(8) 0.8556(4)
N6 N 0.7720(9) 1.1184(8) 0.8337(4)
N7 N 0.7891(9) 1.0900(9) 0.8068(4)
N8 N 0.8495(9) 1.0686(8) 0.8107(4)
N9 N 0.812(1) 1.4029(10) 0.9394(5)
N10 N 0.7476(11) 1.4071(10) 0.9451(5)
N11 N 0.7286(10) 1.4425(11) 0.9657(6)
N12 N 0.7862(11) 1.4702(11) 0.9818(6)
N13 N 0.8814(9) 1.3355(10) 0.8643(5)
N14 N 0.8735(10) 1.2854(10) 0.8407(5)
N15 N 0.8918(10) 1.3046(12) 0.8123(6)
N16 N 0.9132(10) 1.3661(11) 0.8150(5)
C1 C 1.00000 1.00000 0.9069(7)
C2 C 1.0125(10) 1.0577(10) 0.9298(5)
H1 H 1.02120 1.09600 0.91560
H2 H 1.05190 1.04910 0.94310
C3 C 0.938(1) 1.0107(9) 0.8849(5)
H3 H 0.90050 1.01970 0.89950
H4 H 0.92860 0.97140 0.87160
C4 C 0.9339(9) 1.1621(11) 0.9545(5)
C5 C 1.0156(11) 1.2074(12) 0.9984(6)
H5 H 1.02730 1.25140 1.00500
H6 H 1.05390 1.18510 0.98970
H7 H 0.99890 1.18410 1.01790
C6 C 0.872(1) 1.0903(10) 0.8410(5)
C7 C 0.8851(12) 1.0299(11) 0.7834(5)
H8 H 0.85580 1.02170 0.76460
H9 H 0.89990 0.98880 0.79270
H10 H 0.92230 1.05470 0.77540
C8 C 1.00000 1.50000 0.9156(8)
C9 C 0.9413(11) 1.5234(12) 0.9383(6)
H11 H 0.90330 1.53170 0.92390
H12 H 0.95300 1.56430 0.94960
C10 C 0.9868(11) 1.4383(12) 0.8945(6)
H13 H 0.97110 1.40290 0.90900
H14 H 1.02640 1.42400 0.88280
C11 C 0.8377(13) 1.4430(12) 0.9629(6)
C12 C 0.7861(14) 1.5122(13) 1.0112(6)
H15 H 0.83050 1.52400 1.01690
H16 H 0.76640 1.48950 1.03020
H17 H 0.76130 1.55130 1.00630
C13 C 0.9089(12) 1.3836(12) 0.8471(6)
C14 C 0.9375(13) 1.4043(14) 0.7845(6)
H18 H 0.95090 1.44750 0.79170
H19 H 0.90280 1.40800 0.76790
H20 H 0.97430 1.38180 0.77440
O2 O 0.2444(10) 0.7346(8) 0.7733(4)
Si1 Si 0.25000 0.2502(4) 0.87500
Mo1 Mo 0.07782(9) 0.25164(15) 0.88494(5)
Mo2 Mo 0.14934(10) 0.33802(11) 0.81666(7)
Mo3 Mo 0.15001(12) 0.16502(18) 0.81707(8)
Mo4 Mo 0.32202(9) 0.33588(9) 0.80698(4)
Mo5 Mo 0.25000 0.42398(14) 0.87500
Mo6 Mo 0.17836(17) 0.16288(13) 0.94316(5)
Mo7 Mo 0.25000 0.07743(12) 0.87500
O3 O 0.242(2) 0.314(2) 0.8504(11)
O4 O 0.188(2) 0.253(2) 0.9065(11)
O5 O 0.238(2) 0.183(2) 0.8540(11)
O6 O 0.317(2) 0.252(2) 0.8951(11)
O7 O -0.0031(10) 0.2484(12) 0.8900(5)
O8 O 0.1003(12) 0.3678(14) 0.7894(6)
O9 O 0.0974(11) 0.1251(11) 0.7916(6)
O10 O 0.3570(9) 0.3754(10) 0.7746(5)
O11 O 0.25000 0.5044(12) 0.87500
O12 O 0.1428(8) 0.1234(8) 0.9760(4)
O13 O 0.25000 -0.0030(17) 0.87500
O14 O 0.0862(11) 0.3172(11) 0.8512(6)
O15 O 0.1382(10) 0.2521(11) 0.7996(5)
O16 O 0.0813(11) 0.1849(11) 0.8488(6)
O17 O 0.0923(12) 0.3235(12) 0.9213(6)
O18 O 0.2317(10) 0.3394(10) 0.7944(6)
O19 O 0.2338(11) 0.1736(11) 0.7979(6)
O20 O 0.1067(12) 0.1881(12) 0.9175(6)
O21 O 0.1957(10) 0.4124(10) 0.9174(5)
O22 O 0.3288(11) 0.2509(11) 0.7870(5)
O23 O 0.1908(11) 0.1009(11) 0.9079(6)
O24 O 0.1786(12) 0.0881(13) 0.8429(6)
O25 O 0.1776(10) 0.4006(10) 0.8479(6)
Cu1A Cu 1.18039(13) 0.84099(13) 0.90300(7)
Cu1D Cu 0.68039(13) 1.15901(13) 0.84700(7)
Cu1E Cu 1.31961(13) 0.84099(13) 0.84700(7)
Cu2A Cu 1.14799(15) 0.66689(15) 0.91143(7)
Cu2A* Cu 1.14799(15) 1.66689(15) 0.91143(7)
S1A S 1.0546(3) 0.9226(3) 0.95925(14)
S2A S 1.0478(3) 0.9196(3) 0.85602(16)
S3A S 1.0805(3) 1.5410(3) 0.97184(14)
S4A S 1.0784(4) 1.5368(3) 0.86241(17)
O1A O 1.2347(7) 0.7387(8) 0.9114(4)
N1A N 1.1104(8) 0.8084(9) 0.9351(5)
N2A N 1.1079(8) 0.7422(10) 0.9402(5)
N3A N 1.0594(9) 0.7325(9) 0.9621(4)
N4A N 1.0361(9) 0.7902(9) 0.9710(4)
N5A N 1.1758(9) 0.8763(8) 0.8556(4)
N6A N 1.2280(9) 0.8816(8) 0.8337(4)
N6D N 0.7280(9) 1.1184(8) 0.9163(4)
N6E N 1.2720(9) 0.8816(8) 0.9163(4)
N7A N 1.2109(9) 0.9100(9) 0.8068(4)
N8A N 1.1505(9) 0.9314(8) 0.8107(4)
N9A N 1.188(1) 1.5971(10) 0.9394(5)
N9A* N 1.188(1) 0.5971(10) 0.9394(5)
N10A N 1.2524(11) 1.5929(10) 0.9451(5)
N11A N 1.2714(10) 1.5575(11) 0.9657(6)
N12A N 1.2138(11) 1.5298(11) 0.9818(6)
N13A N 1.1186(9) 1.6645(10) 0.8643(5)
N13A* N 1.1186(9) 0.6645(10) 0.8643(5)
N14A N 1.1265(10) 1.7146(10) 0.8407(5)
N15A N 1.1082(10) 1.6954(12) 0.8123(6)
N16A N 1.0868(10) 1.6339(11) 0.8150(5)
C2A C 0.9875(10) 0.9423(10) 0.9298(5)
H1A H 0.97880 0.90400 0.91560
H2A H 0.94810 0.95090 0.94310
C3A C 1.062(1) 0.9893(9) 0.8849(5)
H3A H 1.09950 0.98030 0.89950
H4A H 1.07140 1.02860 0.87160
C4A C 1.0661(9) 0.8379(11) 0.9545(5)
C5A C 0.9844(11) 0.7926(12) 0.9984(6)
H5A H 0.97270 0.74860 1.00500
H6A H 0.94610 0.81490 0.98970
H7A H 1.00110 0.81590 1.01790
C6A C 1.128(1) 0.9097(10) 0.8410(5)
C7A C 1.1149(12) 0.9701(11) 0.7834(5)
H8A H 1.14420 0.97830 0.76460
H9A H 1.10010 1.01120 0.79270
H10A H 1.07770 0.94530 0.77540
C9A C 1.0587(11) 1.4766(12) 0.9383(6)
H11A H 1.09670 1.46830 0.92390
H12A H 1.04700 1.43570 0.94960
C10A C 1.0132(11) 1.5617(12) 0.8945(6)
H13A H 1.02890 1.59710 0.90900
H14A H 0.97360 1.57600 0.88280
C11A C 1.1623(13) 1.5570(12) 0.9629(6)
C12A C 1.2139(14) 1.4878(13) 1.0112(6)
H15A H 1.16950 1.47600 1.01690
H16A H 1.23360 1.51050 1.03020
H17A H 1.23870 1.44870 1.00630
C13A C 1.0911(12) 1.6164(12) 0.8471(6)
C14A C 1.0625(13) 1.5957(14) 0.7845(6)
H18A H 1.04910 1.55250 0.79170
H19A H 1.09720 1.59200 0.76790
H20A H 1.02570 1.61820 0.77440
Mo1D Mo 0.42218(9) 0.25164(15) 0.86506(5)
Mo2D Mo 0.35066(10) 0.33802(11) 0.93334(7)
Mo3D Mo 0.34999(12) 0.16502(18) 0.93293(8)
Mo4D Mo 0.17798(9) 0.33588(9) 0.94302(4)
Mo6D Mo 0.32164(17) 0.16288(13) 0.80684(5)
O3D O 0.258(2) 0.314(2) 0.8996(11)
O4D O 0.312(2) 0.253(2) 0.8435(11)
O5D O 0.262(2) 0.183(2) 0.8960(11)
O6D O 0.183(2) 0.252(2) 0.8549(11)
O7D O 0.5031(10) 0.2484(12) 0.8600(5)
O8D O 0.3997(12) 0.3678(14) 0.9606(6)
O9D O 0.4026(11) 0.1251(11) 0.9584(6)
O10D O 0.1430(9) 0.3754(10) 0.9754(5)
O12D O 0.3572(8) 0.1234(8) 0.7740(4)
O14D O 0.4138(11) 0.3172(11) 0.8988(6)
O15D O 0.3618(10) 0.2521(11) 0.9504(5)
O16D O 0.4187(11) 0.1849(11) 0.9012(6)
O17D O 0.4077(12) 0.3235(12) 0.8287(6)
O18D O 0.2683(10) 0.3394(10) 0.9556(6)
O19D O 0.2662(11) 0.1736(11) 0.9521(6)
O20D O 0.3933(12) 0.1881(12) 0.8325(6)
O21D O 0.3043(10) 0.4124(10) 0.8326(5)
O22D O 0.1712(11) 0.2509(11) 0.9630(5)
O23D O 0.3092(11) 0.1009(11) 0.8421(6)
O24D O 0.3214(12) 0.0881(13) 0.9071(6)
O25D O 0.3224(10) 0.4006(10) 0.9021(6)
#END
