
#######################################################################
#
#                 Cambridge Crystallographic Data Centre
#                                CCDC
#
#######################################################################
#
# If this CIF has been generated from an entry in the Cambridge
# Structural Database, then it will include bibliographic, chemical,
# crystal, experimental, refinement or atomic coordinate data resulting
# from the CCDC's data processing and validation procedures.
#
#######################################################################

data_CSD_CIF_ZAYJOA
_audit_creation_date 2012-07-11
_audit_creation_method CSD-ConQuest-V1
_database_code_CSD ZAYJOA
_database_code_depnum_ccdc_archive 'CCDC 819377'
_chemical_formula_sum 'C10 H48 Ce2 N6 O60 W12'
_chemical_formula_moiety
;
(C10 H22 Ce2 N4 O51 W12 2-)n,9n(H2 O1),2n(H4 N1 1+)
;
_journal_coden_Cambridge 155
_journal_volume 387
_journal_year 2012
_journal_page_first 8
_journal_name_full 'Inorg.Chim.Acta '
loop_
_publ_author_name
"Hua-Xin Meng"
"Ya-Guang Chen"
"Ming-Guan Liu"
"Dan-Dan Liu"
"Zhi-Chao Zhang"
"Chun-Xia Zhang"
"Shu-Xia Liu"
_chemical_name_systematic
;
catena-(bis(ammonium) 
bis(\m~3~-hydroxo)-bis(\m~3~-oxo)-bis(\m~2~-pyrazine-2-carboxylato)-nonacosaki
s(\m~2~-oxo)-heptaaqua-heptaoxo-di-cerium-dodeca-tungsten nonahydrate)
;
_cell_volume   6075.233
_exptl_crystal_colour 'yellow'
_exptl_crystal_density_diffrn 4.007
_exptl_crystal_description 'hexagonal'
_diffrn_ambient_temperature 293
#These two values have been output from a single CSD field.
_refine_ls_R_factor_gt 0.0734
_refine_ls_wR_factor_gt 0.0734
_symmetry_cell_setting monoclinic
_symmetry_space_group_name_H-M 'P 21/c'
_symmetry_Int_Tables_number 14
loop_
_symmetry_equiv_pos_site_id
_symmetry_equiv_pos_as_xyz
1 x,y,z
2 -x,1/2+y,1/2-z
3 -x,-y,-z
4 x,-1/2-y,-1/2+z
_cell_length_a 12.283(5)
_cell_length_b 21.743(5)
_cell_length_c 22.757(5)
_cell_angle_alpha 90
_cell_angle_beta 91.631(5)
_cell_angle_gamma 90
_cell_formula_units_Z 4
loop_
_atom_type_symbol
_atom_type_radius_bond
C 0.68
H 0.23
Ce 2.04
N 0.68
O 0.68
W 1.32
loop_
_atom_site_label
_atom_site_type_symbol
_atom_site_fract_x
_atom_site_fract_y
_atom_site_fract_z
Ce1 Ce 0.14677(13) -0.11443(7) 0.08346(7)
Ce2 Ce 0.63329(14) -0.21126(7) 0.08523(8)
W1 W 0.31677(12) -0.53414(6) 0.35167(7)
W2 W 0.24144(12) -0.40329(7) 0.41137(6)
W3 W 0.05903(11) -0.48721(6) 0.33583(7)
W4 W -0.00605(11) -0.35692(6) 0.24347(7)
W5 W 0.19641(12) -0.28147(6) 0.17810(7)
W6 W 0.17371(11) -0.27134(6) 0.32425(6)
W7 W 0.45222(11) -0.31948(6) 0.34126(6)
W8 W 0.47088(11) -0.33342(6) 0.19529(8)
W9 W 0.53288(10) -0.45432(6) 0.28151(6)
W10 W 0.34337(12) -0.54480(6) 0.19464(6)
W11 W 0.07932(11) -0.49903(6) 0.17840(6)
W12 W 0.27851(11) -0.42114(6) 0.10860(6)
C1 C 0.193(2) -0.0878(12) 0.2419(13)
H1 H 0.12320 -0.06770 0.23780
C2 C 0.240(3) -0.0950(14) 0.2985(16)
H2 H 0.20460 -0.08210 0.33340
C3 C 0.384(3) -0.1377(16) 0.2569(17)
H3 H 0.45710 -0.15360 0.26010
C4 C 0.339(2) -0.1312(11) 0.1994(11)
C5 C 0.395(2) -0.1478(12) 0.1407(12)
C6 C 0.706(2) -0.2183(13) 0.2402(14)
H4 H 0.63560 -0.23720 0.24090
C7 C 0.762(3) -0.2110(14) 0.2921(16)
H5 H 0.72660 -0.21810 0.32860
C8 C 0.909(3) -0.1799(13) 0.2403(14)
H6 H 0.98330 -0.16680 0.23960
C9 C 0.8510(19) -0.1849(10) 0.1904(11)
C10 C 0.886(3) -0.1741(14) 0.1319(15)
N1 N 0.7412(18) -0.2020(9) 0.1902(10)
N2 N 0.864(2) -0.193(1) 0.2934(11)
N3 N 0.2396(19) -0.107(1) 0.1947(11)
N4 N 0.342(2) -0.1226(11) 0.3022(12)
N5 N -0.0290(19) -0.3103(11) 0.0622(11)
H7 H 0.00730 -0.33380 0.09260
H8 H -0.02550 -0.33200 0.02550
H9 H -0.10390 -0.30440 0.07180
H10 H 0.00590 -0.27110 0.05860
N6 N -0.248(2) -0.4151(14) 0.1428(14)
H11 H -0.18560 -0.42820 0.16580
H12 H -0.28000 -0.44990 0.12300
H13 H -0.30050 -0.39700 0.16820
H14 H -0.22630 -0.38530 0.11440
O1 O 0.401(3) -0.1423(17) 0.4130(11)
O2 O 0.2264(17) -0.4500(9) 0.3317(9)
O3 O 0.443(2) 0.0353(13) 0.0384(10)
O4 O 0.1774(19) -0.3426(10) 0.2553(11)
O5 O -0.093(3) -0.1922(14) -0.0657(12)
O6 O 0.399(2) -0.3847(10) 0.2707(10)
O7 O 0.290(2) -0.2282(13) 0.4866(15)
O8 O 0.243(2) -0.4564(12) 0.2036(13)
O9 O -0.1402(19) -0.3415(10) 0.2375(11)
O10 O -0.074(2) -0.1807(16) 0.4047(12)
O11 O 0.079(5) -0.119(3) 0.474(3)
O12 O 0.1807(16) -0.2186(8) 0.1288(8)
O13 O 0.145(2) -0.205(1) 0.3637(12)
O14 O 0.214(2) 0.1081(14) 0.1352(14)
O15 O 0.534(2) -0.2771(9) 0.3866(11)
O16 O -0.425(7) -0.405(4) -0.007(4)
O17 O 0.5665(15) -0.2919(8) 0.1541(9)
O18 O -0.205(5) -0.093(3) 0.458(3)
O19 O 0.6609(16) -0.4844(9) 0.2913(9)
O20 O 0.3925(19) -0.6130(9) 0.1729(12)
O21 O -0.020(2) -0.5418(11) 0.1436(12)
O22 O 0.2932(18) -0.4169(12) 0.0377(10)
O23 O 0.3061(18) -0.4843(10) 0.4233(13)
O24 O 0.1604(18) -0.5508(10) 0.3570(11)
O25 O 0.451(2) -0.4946(11) 0.3394(11)
O26 O 0.317(2) -0.5635(13) 0.2740(14)
O27 O 0.099(2) -0.4472(10) 0.4088(11)
O28 O 0.379(2) -0.3691(11) 0.3982(11)
O29 O 0.172(2) -0.3320(11) 0.3843(11)
O30 O -0.0043(19) -0.4154(10) 0.3047(10)
O31 O 0.0562(19) -0.5187(10) 0.2575(10)
O32 O 0.041(2) -0.3002(11) 0.1858(11)
O33 O 0.0320(19) -0.2965(10) 0.3040(11)
O34 O 0.0174(18) -0.4223(10) 0.1904(10)
O35 O 0.1856(19) -0.2303(11) 0.2511(11)
O36 O 0.3437(17) -0.2850(9) 0.1902(11)
O37 O 0.207(2) -0.3477(11) 0.1236(12)
O38 O 0.3284(17) -0.2734(9) 0.3293(10)
O39 O 0.503(2) -0.2868(10) 0.2709(11)
O40 O 0.5560(18) -0.3889(9) 0.3397(10)
O41 O 0.5730(19) -0.3975(10) 0.2221(10)
O42 O 0.411(2) -0.3876(11) 0.1428(13)
O43 O 0.469(2) -0.5052(12) 0.2211(12)
O44 O 0.1928(19) -0.5604(11) 0.1767(12)
O45 O 0.3511(16) -0.4963(9) 0.1252(9)
O46 O 0.149(2) -0.4602(11) 0.1138(12)
O47 O 0.4851(15) -0.1723(9) 0.1502(10)
O48 O 0.3453(16) -0.1360(9) 0.0958(9)
O49 O 0.2306(15) -0.3903(9) 0.4862(9)
O50 O 0.0825(19) -0.2067(10) 0.0159(10)
O51 O -0.001(2) -0.0710(12) 0.0142(11)
O52 O 0.236(2) -0.0125(10) 0.0713(15)
O53 O -0.0501(16) -0.5270(9) 0.362(1)
O54 O 0.9910(17) -0.1524(9) 0.1329(10)
O55 O 0.513(2) -0.2869(11) 0.0289(12)
O56 O 0.752(2) -0.3047(9) 0.0794(12)
O57 O 0.697(2) -0.2096(12) -0.0187(13)
O58 O 0.498(2) -0.1503(11) 0.0206(11)
O59 O 0.8340(16) -0.1798(8) 0.0862(8)
O60 O 0.3489(16) -0.5979(9) 0.3896(9)
Ce1A Ce -0.14677(13) -0.61443(7) 0.41654(7)
Ce1C Ce 0.14677(13) -0.38557(7) 0.58346(7)
Ce1* Ce 1.14677(13) -0.11443(7) 0.08346(7)
Ce2A Ce 0.36671(14) -0.71126(7) 0.41477(8)
O49C O 0.2306(15) -0.1097(9) -0.0138(9)
O53A O 0.0501(16) -0.0270(9) 0.138(1)
O54* O -0.0090(17) -0.1524(9) 0.1329(10)
O60A O 0.6511(16) -0.0979(9) 0.1104(9)
#END
