
#######################################################################
#
#                 Cambridge Crystallographic Data Centre
#                                CCDC
#
#######################################################################
#
# If this CIF has been generated from an entry in the Cambridge
# Structural Database, then it will include bibliographic, chemical,
# crystal, experimental, refinement or atomic coordinate data resulting
# from the CCDC's data processing and validation procedures.
#
#######################################################################

data_CSD_CIF_ZAYTEB01
_audit_creation_date 2017-07-05
_audit_creation_method CSD-ConQuest-V1
_database_code_CSD ZAYTEB01
_database_code_depnum_ccdc_archive 'CCDC 1529452'
_chemical_formula_sum 'C15 H26 N2 O12 P2 Zn2'
_chemical_formula_moiety
;
(C8 H6 O12 P2 Zn2 2-)n,C7 H20 N2 2+
;
_journal_coden_Cambridge 9
_journal_volume 56
_journal_year 2017
_journal_page_first 7602
_journal_name_full 'Inorg.Chem. '
loop_
_publ_author_name
"Chih-Min Wang"
"Ming-Feng Pan"
"Yen-Chieh Chen"
"Hsiu-Mei Lin"
"Mei-Ying Chung"
"Yuh-Sheng Wen"
"Kwang-Hwa Lii"
_chemical_name_systematic
;
catena-[heptane-1,7-diaminium bis(\m-hydrogen 
phosphato)-(\m-terephthalato)-di-zinc]
;
_cell_volume   2273.909
_exptl_crystal_colour 'colorless'
_exptl_crystal_density_diffrn 1.808
_exptl_special_details
;
monoclinic P21/c polymorph

;
_exptl_crystal_description 'needle'
_diffrn_ambient_temperature 296
#These two values have been output from a single CSD field.
_refine_ls_R_factor_gt 0.031
_refine_ls_wR_factor_gt 0.031
_symmetry_cell_setting monoclinic
_symmetry_space_group_name_H-M 'P 21/c'
_symmetry_Int_Tables_number 14
loop_
_symmetry_equiv_pos_site_id
_symmetry_equiv_pos_as_xyz
1 x,y,z
2 -x,1/2+y,1/2-z
3 -x,-y,-z
4 x,-1/2-y,-1/2+z
_cell_length_a 26.8117(8)
_cell_length_b 8.9990(3)
_cell_length_c 9.4291(3)
_cell_angle_alpha 90
_cell_angle_beta 91.806(1)
_cell_angle_gamma 90
_cell_formula_units_Z 4
loop_
_atom_type_symbol
_atom_type_radius_bond
C 0.68
H 0.23
N 0.68
O 0.68
P 1.05
Zn 1.22
loop_
_atom_site_label
_atom_site_type_symbol
_atom_site_fract_x
_atom_site_fract_y
_atom_site_fract_z
Zn1 Zn 0.054083(10) 0.31457(3) 0.10784(3)
Zn2 Zn 0.457016(11) 0.55296(3) 0.28587(3)
P1 P -0.02364(2) 0.55768(7) 0.19073(7)
P2 P 0.49452(2) 0.72194(7) 0.55038(6)
O1 O 0.12604(8) 0.3162(3) 0.1363(3)
O2 O 0.14290(9) 0.4966(4) -0.0158(3)
O3 O 0.37293(9) 0.3377(3) 0.3911(3)
O4 O 0.38865(7) 0.5057(3) 0.2244(2)
O5 O -0.06104(7) 0.4292(2) 0.1464(2)
H1 H -0.08620 0.44910 0.09740
O6 O -0.03671(8) 0.6129(2) 0.33841(18)
O7 O -0.02716(8) 0.6836(2) 0.08485(19)
O8 O 0.02781(7) 0.4870(2) 0.2034(2)
O9 O 0.45256(7) 0.6968(2) 0.43951(19)
O10 O 0.48808(7) 0.87485(19) 0.61677(18)
O11 O 0.54454(7) 0.7253(2) 0.4665(2)
H2 H 0.57110 0.68300 0.50790
O12 O 0.49681(7) 0.6014(2) 0.66156(19)
C1 C 0.15489(10) 0.4073(4) 0.0782(3)
C2 C 0.20837(10) 0.4051(3) 0.1328(3)
C3 C 0.24186(11) 0.5063(4) 0.0787(3)
H3 H 0.23140 0.57220 0.00790
C4 C 0.29086(11) 0.5095(4) 0.1301(3)
H4 H 0.31310 0.57780 0.09360
C5 C 0.22423(11) 0.3075(3) 0.2389(3)
H5 H 0.20190 0.23960 0.27580
C6 C 0.27327(11) 0.3112(4) 0.2901(4)
H6 H 0.28370 0.24590 0.36150
C7 C 0.30688(10) 0.4115(3) 0.2354(3)
C8 C 0.36039(10) 0.4172(4) 0.2901(3)
N1 N 0.06857(10) -0.1033(3) -0.0320(3)
H7 H 0.06500 -0.20930 -0.01420
H8 H 0.05270 -0.07230 -0.11670
H9 H 0.05910 -0.04270 0.03470
N2 N 0.41674(9) -0.0210(3) 0.3744(3)
H10 H 0.42120 -0.11810 0.39490
H11 H 0.39960 0.03510 0.44840
H12 H 0.44630 0.01870 0.35380
C9 C 0.12237(12) -0.0808(5) -0.0588(4)
H13 H 0.12740 0.02010 -0.09150
H14 H 0.13220 -0.14770 -0.13370
C10 C 0.15529(11) -0.1078(4) 0.0709(3)
H15 H 0.15210 -0.21040 0.10080
H16 H 0.14470 -0.04460 0.14770
C11 C 0.20961(12) -0.0751(4) 0.0398(4)
H17 H 0.21990 -0.13970 -0.03630
H18 H 0.21220 0.02660 0.00690
C12 C 0.24487(12) -0.0967(4) 0.1671(3)
H19 H 0.24320 -0.19930 0.19800
H20 H 0.23400 -0.03440 0.24420
C13 C 0.29874(12) -0.0588(4) 0.1357(4)
H21 H 0.30040 0.04270 0.10160
H22 H 0.31010 -0.12360 0.06100
C14 C 0.33340(11) -0.0756(4) 0.2657(4)
H23 H 0.31850 -0.02700 0.34580
H24 H 0.33700 -0.18030 0.28830
C15 C 0.38442(11) -0.0098(4) 0.2433(3)
H25 H 0.40010 -0.06180 0.16650
H26 H 0.38090 0.09380 0.21640
Zn1A Zn -0.054083(10) 0.81457(3) 0.39216(3)
Zn1B Zn -0.054083(10) 0.68543(3) -0.10784(3)
Zn2B Zn 0.542984(11) 0.44704(3) 0.71413(3)
Zn2C Zn 0.457016(11) 0.94704(3) 0.78587(3)
O6A O 0.03671(8) 0.1129(2) 0.16159(18)
O7B O 0.02716(8) 0.3164(2) -0.08485(19)
O10C O 0.48808(7) 0.62515(19) 0.11677(18)
O12B O 0.50319(7) 0.3986(2) 0.33844(19)
#END
