
#######################################################################
#
#                 Cambridge Crystallographic Data Centre
#                                CCDC
#
#######################################################################
#
# If this CIF has been generated from an entry in the Cambridge
# Structural Database, then it will include bibliographic, chemical,
# crystal, experimental, refinement or atomic coordinate data resulting
# from the CCDC's data processing and validation procedures.
#
#######################################################################

data_CSD_CIF_ZAYTEB
_audit_creation_date 2017-07-05
_audit_creation_method CSD-ConQuest-V1
_database_code_CSD ZAYTEB
_database_code_depnum_ccdc_archive 'CCDC 1529451'
_chemical_formula_sum 'C15 H26 N2 O12 P2 Zn2'
_chemical_formula_moiety
;
(C8 H6 O12 P2 Zn2 2-)n,C7 H20 N2 2+
;
_journal_coden_Cambridge 9
_journal_volume 56
_journal_year 2017
_journal_page_first 7602
_journal_name_full 'Inorg.Chem. '
loop_
_publ_author_name
"Chih-Min Wang"
"Ming-Feng Pan"
"Yen-Chieh Chen"
"Hsiu-Mei Lin"
"Mei-Ying Chung"
"Yuh-Sheng Wen"
"Kwang-Hwa Lii"
_chemical_name_systematic
;
catena-[heptane-1,7-diaminium bis(\m-hydrogen 
phosphato)-(\m-terephthalato)-di-zinc]
;
_cell_volume   2266.314
_exptl_crystal_colour 'colorless'
_exptl_crystal_density_diffrn 1.814
_exptl_special_details
;
orthorhombic Pnma polymorph

;
_exptl_crystal_description 'needle'
_diffrn_ambient_temperature 296
#These two values have been output from a single CSD field.
_refine_ls_R_factor_gt 0.0378
_refine_ls_wR_factor_gt 0.0378
_symmetry_cell_setting orthorhombic
_symmetry_space_group_name_H-M 'P n m a'
_symmetry_Int_Tables_number 62
loop_
_symmetry_equiv_pos_site_id
_symmetry_equiv_pos_as_xyz
1 x,y,z
2 1/2-x,-y,1/2+z
3 -x,1/2+y,-z
4 1/2+x,1/2-y,1/2-z
5 -x,-y,-z
6 -1/2+x,y,-1/2-z
7 x,-1/2-y,z
8 -1/2-x,-1/2+y,-1/2+z
_cell_length_a 9.7585(2)
_cell_length_b 27.6003(7)
_cell_length_c 8.4144(2)
_cell_angle_alpha 90
_cell_angle_beta 90
_cell_angle_gamma 90
_cell_formula_units_Z 4
loop_
_atom_type_symbol
_atom_type_radius_bond
C 0.68
H 0.23
N 0.68
O 0.68
P 1.05
Zn 1.22
loop_
_atom_site_label
_atom_site_type_symbol
_atom_site_fract_x
_atom_site_fract_y
_atom_site_fract_z
Zn1 Zn 0.08854(2) 0.447117(8) 0.17934(3)
P1 P -0.19806(5) 0.483680(19) 0.07751(6)
O1 O -0.18203(17) 0.44890(6) -0.07200(18)
H1 H -0.13620 0.42020 -0.04340
O2 O -0.34729(14) 0.47945(6) 0.12917(17)
O3 O -0.16897(17) 0.53458(6) 0.02082(18)
O4 O -0.10236(15) 0.46692(6) 0.20722(17)
O5 O 0.1009(2) 0.37651(6) 0.1969(2)
O6 O -0.0344(2) 0.37404(6) -0.0163(2)
C1 C 0.0326(3) 0.35441(8) 0.0923(3)
C2 C 0.0335(2) 0.30012(7) 0.0969(3)
C3 C 0.1315(3) 0.27514(8) 0.1834(3)
H2 H 0.19710 0.29200 0.24130
C4 C -0.0648(3) 0.27500(8) 0.0118(3)
H3 H -0.13090 0.29180 -0.04550
N1 N -0.0070(2) 0.56808(7) 0.3575(3)
H4 H 0.04470 0.54280 0.33720
H5 H -0.07340 0.55890 0.44120
H6 H -0.03790 0.57360 0.24830
C5 C 0.0605(3) 0.61369(8) 0.4079(3)
H7 H 0.14070 0.61910 0.34220
H8 H 0.09100 0.61040 0.51700
C6 C -0.0332(3) 0.65720(8) 0.3956(3)
H9 H -0.10880 0.65350 0.46940
H10 H -0.07090 0.65890 0.28900
C7 C 0.0432(3) 0.70399(9) 0.4323(4)
H11 H 0.12520 0.70520 0.36740
H12 H 0.07180 0.70330 0.54270
C8 C -0.0395(4) 0.75000 0.4038(5)
H13 H -0.11860 0.75000 0.47370
H14 H -0.07280 0.75000 0.29510
O5F O 0.1009(2) 0.12349(6) 0.1969(2)
O6F O -0.0344(2) 0.12596(6) -0.0163(2)
C1F C 0.0326(3) 0.14559(8) 0.0923(3)
C2F C 0.0335(2) 0.19988(7) 0.0969(3)
C3F C 0.1315(3) 0.22486(8) 0.1834(3)
H2F H 0.19710 0.20800 0.24130
C4F C -0.0648(3) 0.22500(8) 0.0118(3)
H3F H -0.13090 0.20820 -0.04550
Zn1D Zn -0.08854(2) 0.552883(8) -0.17934(3)
P1D P 0.19806(5) 0.516320(19) -0.07751(6)
O1D O 0.18203(17) 0.55110(6) 0.07200(18)
H1D H 0.13620 0.57980 0.04340
O2D O 0.34729(14) 0.52055(6) -0.12917(17)
O3D O 0.16897(17) 0.46542(6) -0.02082(18)
O4D O 0.10236(15) 0.53308(6) -0.20722(17)
Zn1A Zn 0.41146(2) 0.552883(8) -0.32066(3)
Zn1E Zn -0.41146(2) 0.447117(8) 0.32066(3)
Zn1F Zn 0.08854(2) 0.052883(8) 0.17934(3)
O2A O -0.15271(14) 0.52055(6) -0.37083(17)
O2E O 0.15271(14) 0.47945(6) 0.37083(17)
O5D O -0.1009(2) 0.62349(6) -0.1969(2)
N1F N -0.0070(2) 0.93192(7) 0.3575(3)
H4F H 0.04470 0.95720 0.33720
H5F H -0.07340 0.94110 0.44120
H6F H -0.03790 0.92640 0.24830
C5F C 0.0605(3) 0.88631(8) 0.4079(3)
H7F H 0.14070 0.88090 0.34220
H8F H 0.09100 0.88960 0.51700
C6F C -0.0332(3) 0.84280(8) 0.3956(3)
H9F H -0.10880 0.84650 0.46940
H10F H -0.07090 0.84110 0.28900
C7F C 0.0432(3) 0.79601(9) 0.4323(4)
H11F H 0.12520 0.79480 0.36740
H12F H 0.07180 0.79670 0.54270
#END
