
#######################################################################
#
#                 Cambridge Crystallographic Data Centre
#                                CCDC
#
#######################################################################
#
# If this CIF has been generated from an entry in the Cambridge
# Structural Database, then it will include bibliographic, chemical,
# crystal, experimental, refinement or atomic coordinate data resulting
# from the CCDC's data processing and validation procedures.
#
#######################################################################

data_CSD_CIF_ZAZJIT
_audit_creation_date 1996-04-18
_audit_creation_method CSD-ConQuest-V1
_database_code_CSD ZAZJIT
_chemical_formula_sum 'C10 H26 N2 O14 P4 V2'
_chemical_formula_moiety
;
(C6 H14 O14 P4 V2 2-)n,n(C4 H12 N2 2+)
;
_journal_coden_Cambridge 9
_journal_volume 34
_journal_year 1995
_journal_page_first 4460
_journal_name_full 'Inorg.Chem. '
loop_
_publ_author_name
"V.Soghomomian"
"R.Diaz"
"R.C.Haushalter"
"C.J.O'Connor"
"J.Zubieta"
_chemical_name_systematic
;
catena-(Piperazinium 
bis((\m~4~-propane-1,3-bis(phosphonato)-O,O',O'',O''')-oxo-vanadium))
;
_cell_volume    560.855
_exptl_crystal_colour 'green'
_exptl_crystal_density_diffrn 1.842
_diffrn_ambient_temperature ?
_diffrn_special_details
;
The study was carried out at room temperature,in the range 283-303K

;
#These two values have been output from a single CSD field.
_refine_ls_R_factor_gt 0.066
_refine_ls_wR_factor_gt 0.066
_symmetry_cell_setting triclinic
_symmetry_space_group_name_H-M 'P -1'
_symmetry_Int_Tables_number 2
loop_
_symmetry_equiv_pos_site_id
_symmetry_equiv_pos_as_xyz
1 x,y,z
2 -x,-y,-z
_cell_length_a 6.244(1)
_cell_length_b 8.687(2)
_cell_length_c 11.156(2)
_cell_angle_alpha 88.92(3)
_cell_angle_beta 74.63(3)
_cell_angle_gamma 74.32(3)
_cell_formula_units_Z 1
loop_
_atom_type_symbol
_atom_type_radius_bond
C 0.64
H 0.23
N 0.68
O 0.68
P 1.05
V 1.30
loop_
_atom_site_label
_atom_site_type_symbol
_atom_site_fract_x
_atom_site_fract_y
_atom_site_fract_z
V1 V 0.2342(2) -0.1216(2) 0.6607(1)
P1 P -0.2090(3) -0.1368(2) 0.5562(2)
P2 P -0.1253(3) -0.5825(2) 0.1605(2)
O1 O 0.1553(10) 0.0143(7) 0.7686(5)
O2 O -0.0674(8) -0.1402(6) 0.6506(4)
O3 O 0.2664(8) -0.0249(6) 0.4994(5)
O4 O -0.4285(8) -0.1816(7) 0.6290(5)
O5 O -0.2696(9) -0.6733(7) 0.2576(5)
O6 O -0.2964(9) -0.4574(7) 0.1108(5)
O7 O 0.0712(9) -0.6845(6) 0.0680(5)
N1 N 0.4343(11) 0.0969(8) 0.1119(6)
C1 C -0.0407(13) -0.2872(10) 0.4354(8)
C2 C -0.1767(13) -0.3562(10) 0.3627(7)
C3 C -0.0042(15) -0.4703(10) 0.2514(8)
C4 C 0.4261(15) -0.0706(10) 0.1169(8)
C5 C 0.6194(15) 0.1196(11) 0.0001(8)
H1 H 0.30950 0.18480 0.15580
H2? H 0.57610 0.12720 0.09290
H3 H 0.00890 -0.21220 0.37770
H4 H 0.08740 -0.37940 0.43210
H5 H -0.25810 -0.26020 0.33220
H6 H -0.28180 -0.39070 0.43010
H7 H -0.04370 -0.49810 0.33660
H8 H 0.08560 -0.39480 0.24290
H9 H 0.57080 -0.13830 0.12460
H10 H 0.30420 -0.08060 0.18750
H11? H 0.49860 -0.18410 -0.06760
H12 H 0.76800 0.12640 0.00470
O3A O -0.2664(8) 0.0249(6) 0.5006(5)
O4* O 0.5715(8) -0.1816(7) 0.6290(5)
P1A P 0.2090(3) 0.1368(2) 0.4438(2)
V1A V -0.2342(2) 0.1216(2) 0.3393(1)
O2A O 0.0674(8) 0.1402(6) 0.3494(4)
O4A O 0.4285(8) 0.1816(7) 0.3710(5)
C1A C 0.0407(13) 0.2872(10) 0.5646(8)
O1A O -0.1553(10) -0.0143(7) 0.2314(5)
O4A* O -0.5715(8) 0.1816(7) 0.3710(5)
O5* O -0.2696(9) 0.3267(7) 0.2576(5)
V1A* V 0.7658(2) 0.1216(2) 0.3393(1)
C2A C 0.1767(13) 0.3562(10) 0.6373(7)
H3A H -0.00890 0.21220 0.62230
H4A H -0.08740 0.37940 0.56790
O5A O 0.2696(9) -0.3267(7) 0.7424(5)
C5A C 0.3806(15) -0.1196(11) -0.0001(8)
C4A C 0.5739(15) 0.0706(10) -0.1169(8)
N1A N 0.5657(11) -0.0969(8) -0.1119(6)
H12A H 0.23200 -0.12640 -0.00470
H9A H 0.42920 0.13830 -0.12460
H10A H 0.69580 0.08060 -0.18750
H1A H 0.69050 -0.18480 -0.15580
V1* V -0.7658(2) -0.1216(2) 0.6607(1)
C3A C 0.0042(15) 0.4703(10) 0.7486(8)
H5A H 0.25810 0.26020 0.66780
H6A H 0.28180 0.39070 0.56990
V1A** V -0.2342(2) -0.8784(2) 0.3393(1)
P2A P 0.1253(3) 0.5825(2) 0.8395(2)
H7A H 0.04370 0.49810 0.66340
H8A H -0.08560 0.39480 0.75710
O5A* O 0.2696(9) 0.6733(7) 0.7424(5)
O6A O 0.2964(9) 0.4574(7) 0.8892(5)
O7A O -0.0712(9) 0.6845(6) 0.9320(5)
V1** V 0.2342(2) 0.8784(2) 0.6607(1)
#END
