
#######################################################################
#
#                 Cambridge Crystallographic Data Centre
#                                CCDC
#
#######################################################################
#
# If this CIF has been generated from an entry in the Cambridge
# Structural Database, then it will include bibliographic, chemical,
# crystal, experimental, refinement or atomic coordinate data resulting
# from the CCDC's data processing and validation procedures.
#
#######################################################################

data_CSD_CIF_ZEBMIF
_audit_creation_date 2017-07-06
_audit_creation_method CSD-ConQuest-V1
_database_code_CSD ZEBMIF
_database_code_depnum_ccdc_archive 'CCDC 1478319'
_chemical_formula_sum 'C30 H24 Ag1 I7 N6 Pb2 Zn1'
_chemical_formula_moiety
;
C30 H24 N6 Zn1 2+,n(Ag1 I7 Pb2 2-)
;
_journal_coden_Cambridge 222
_journal_volume 46
_journal_year 2017
_journal_page_first 9235
_journal_name_full 'Dalton Trans. '
loop_
_publ_author_name
"Cheng-Yang Yue"
"Xiao-Wu Lei"
"Xin-Xiu Lu"
"Yan Li"
"Jun-Chao Wei"
"Wei Wang"
"Yun-Dong Yin"
"Ning Wang"
_chemical_name_systematic
;
catena-[tris(2,2'-bipyridine)-zinc(ii) 
tetrakis(\m-iodo)-triiodo-di-lead(ii)-silver(i)]
;
_cell_volume   4328.611
_exptl_crystal_colour 'yellow'
_exptl_crystal_density_diffrn 2.984
_exptl_crystal_description 'block'
_diffrn_ambient_temperature 296
#These two values have been output from a single CSD field.
_refine_ls_R_factor_gt 0.0371
_refine_ls_wR_factor_gt 0.0371
_symmetry_cell_setting monoclinic
_symmetry_space_group_name_H-M 'P 21/c'
_symmetry_Int_Tables_number 14
loop_
_symmetry_equiv_pos_site_id
_symmetry_equiv_pos_as_xyz
1 x,y,z
2 -x,1/2+y,1/2-z
3 -x,-y,-z
4 x,-1/2-y,-1/2+z
_cell_length_a 13.3822(7)
_cell_length_b 13.6064(7)
_cell_length_c 25.1718(12)
_cell_angle_alpha 90
_cell_angle_beta 109.193(2)
_cell_angle_gamma 90
_cell_formula_units_Z 4
loop_
_atom_type_symbol
_atom_type_radius_bond
C 0.68
H 0.23
Ag 1.45
I 1.40
N 0.68
Pb 1.46
Zn 1.22
loop_
_atom_site_label
_atom_site_type_symbol
_atom_site_fract_x
_atom_site_fract_y
_atom_site_fract_z
Zn1 Zn -0.07913(7) -0.04733(6) -0.19672(3)
N1 N -0.1667(5) -0.1820(4) -0.2194(3)
N2 N -0.0410(5) -0.1227(5) -0.1186(3)
N3 N -0.2095(5) 0.0312(5) -0.1834(3)
N4 N -0.0080(5) 0.0900(4) -0.1590(3)
N5 N -0.1027(5) 0.0033(4) -0.2806(3)
N6 N 0.0618(5) -0.0959(5) -0.2138(3)
C1 C -0.2332(7) -0.2057(6) -0.2708(4)
H1 H -0.23520 -0.16560 -0.30100
C2 C -0.2982(8) -0.2863(7) -0.2805(5)
H2 H -0.34370 -0.30090 -0.31650
C3 C -0.2937(9) -0.3448(7) -0.2352(5)
H3 H -0.33670 -0.40010 -0.24040
C4 C -0.2266(8) -0.3226(7) -0.1826(5)
H4 H -0.22360 -0.36180 -0.15190
C5 C -0.1640(6) -0.2409(5) -0.1764(4)
C6 C -0.0871(6) -0.2110(6) -0.1206(3)
C7 C -0.0635(8) -0.2702(6) -0.0740(4)
H5 H -0.09600 -0.33110 -0.07590
C8 C 0.0092(8) -0.2382(7) -0.0243(4)
H6 H 0.02820 -0.27880 0.00720
C9 C 0.0523(7) -0.1486(7) -0.0213(3)
H7 H 0.09880 -0.12500 0.01250
C10 C 0.0264(7) -0.0923(7) -0.0693(4)
H8 H 0.05700 -0.03050 -0.06740
C11 C -0.3068(7) -0.0048(6) -0.1935(4)
H9 H -0.32330 -0.06560 -0.21100
C12 C -0.3831(7) 0.0444(7) -0.1791(4)
H10 H -0.45120 0.01910 -0.18800
C13 C -0.3567(8) 0.1313(7) -0.1513(4)
H11 H -0.40620 0.16460 -0.13940
C14 C -0.2582(7) 0.1700(7) -0.1409(4)
H12 H -0.24100 0.23080 -0.12340
C15 C -0.1837(6) 0.1171(5) -0.1567(3)
C16 C -0.0745(6) 0.1519(5) -0.1456(3)
C17 C -0.0358(8) 0.2430(6) -0.1202(3)
H13 H -0.08070 0.28720 -0.11120
C18 C 0.0688(8) 0.2650(7) -0.1091(4)
H14 H 0.09520 0.32450 -0.09200
C19 C 0.1344(7) 0.2014(7) -0.1225(4)
H15 H 0.20560 0.21610 -0.11480
C20 C 0.0929(7) 0.1153(6) -0.1476(4)
H16 H 0.13750 0.07170 -0.15740
C21 C -0.1894(7) 0.0524(6) -0.3122(3)
H17 H -0.24430 0.06190 -0.29770
C22 C -0.2003(7) 0.0887(6) -0.3642(3)
H18 H -0.26180 0.12110 -0.38530
C23 C -0.1178(8) 0.0761(7) -0.3846(4)
H19 H -0.12170 0.10080 -0.41970
C24 C -0.0299(7) 0.0268(7) -0.3525(4)
H20 H 0.02590 0.01700 -0.36630
C25 C -0.0225(6) -0.0092(5) -0.2996(3)
C26 C 0.0689(6) -0.0653(6) -0.2637(3)
C27 C 0.1589(7) -0.0863(7) -0.2772(4)
H21 H 0.16510 -0.06330 -0.31080
C28 C 0.2388(8) -0.1408(7) -0.2413(4)
H22 H 0.29850 -0.15640 -0.25080
C29 C 0.2303(6) -0.1713(7) -0.1925(4)
H23 H 0.28410 -0.20810 -0.16760
C30 C 0.1419(7) -0.1481(6) -0.1795(4)
H24 H 0.13710 -0.16950 -0.14540
Pb1 Pb 0.59676(2) -0.53603(2) -0.068968(14)
Pb2 Pb 0.55298(3) -0.19999(2) -0.022333(15)
I1 I 0.53830(6) -0.60864(5) -0.18547(3)
I2 I 0.51232(5) -0.32499(5) -0.12842(3)
I3 I 0.75835(4) -0.09668(4) -0.03191(3)
I4 I 0.83072(4) -0.52915(4) -0.05478(2)
I5 I 0.64009(4) -0.38219(4) 0.05277(2)
I6 I 0.67371(4) -0.75205(4) 0.00338(2)
Ag1 Ag 0.63223(6) -0.95211(5) -0.01267(4)
I7 I 0.58463(4) -1.01923(4) 0.08925(2)
Pb2* Pb 0.55298(3) -1.19999(2) -0.022333(15)
Pb2B Pb 0.44702(3) -0.80001(2) 0.022333(15)
I3* I 0.75835(4) -1.09668(4) -0.03191(3)
I6B I 0.32629(4) -0.24795(4) -0.00338(2)
Ag1* Ag 0.63223(6) 0.04789(5) -0.01267(4)
Ag1B Ag 0.36777(6) -1.04789(5) 0.01267(4)
Ag1B* Ag 0.36777(6) -0.04789(5) 0.01267(4)
I7B I 0.41537(4) -0.98077(4) -0.08925(2)
#END
