
#######################################################################
#
#                 Cambridge Crystallographic Data Centre
#                                CCDC
#
#######################################################################
#
# If this CIF has been generated from an entry in the Cambridge
# Structural Database, then it will include bibliographic, chemical,
# crystal, experimental, refinement or atomic coordinate data resulting
# from the CCDC's data processing and validation procedures.
#
#######################################################################

data_CSD_CIF_ZEBZAJ
_audit_creation_date 2013-02-01
_audit_creation_method CSD-ConQuest-V1
_database_code_CSD ZEBZAJ
_database_code_depnum_ccdc_archive 'CCDC 867654'
_chemical_formula_sum 'C14 H8 Ag1 N3 O4'
_chemical_formula_moiety
;
(H4 N1 1+)n,n(C14 H4 Ag1 N2 O4 1-)
;
_journal_coden_Cambridge 1147
_journal_volume 12
_journal_year 2012
_journal_page_first 4580
_journal_name_full 'Cryst.Growth Des. '
loop_
_publ_author_name
"Tao Tao"
"Yan-Hua Lei"
"Yu-Xin Peng"
"Ying Wang"
"Wei Huang"
"Zhao-Xu Chen"
"Xiao-Zeng You"
_chemical_name_systematic
;
catena-[Ammonium 
(\m~2~-1,3,6,8-tetraoxo-1,3,6,8-tetrahydrobenzo[lmn][3,8]phenanthroline-2,7-di
yl)-silver(i)]
;
_cell_volume    300.003
_exptl_crystal_colour 'orange'
_exptl_crystal_density_diffrn 2.159
_exptl_crystal_description 'needle'
_diffrn_ambient_temperature 291
#These two values have been output from a single CSD field.
_refine_ls_R_factor_gt 0.0304
_refine_ls_wR_factor_gt 0.0304
_symmetry_cell_setting triclinic
_symmetry_space_group_name_H-M 'P -1'
_symmetry_Int_Tables_number 2
loop_
_symmetry_equiv_pos_site_id
_symmetry_equiv_pos_as_xyz
1 x,y,z
2 -x,-y,-z
_cell_length_a 3.7843(8)
_cell_length_b 7.7515(16)
_cell_length_c 10.297(2)
_cell_angle_alpha 92.957(2)
_cell_angle_beta 95.118(3)
_cell_angle_gamma 92.835(3)
_cell_formula_units_Z 1
loop_
_atom_type_symbol
_atom_type_radius_bond
C 0.68
H 0.23
Ag 1.45
N 0.68
O 0.68
loop_
_atom_site_label
_atom_site_type_symbol
_atom_site_fract_x
_atom_site_fract_y
_atom_site_fract_z
Ag1 Ag 1.00000 0.00000 0.00000
C1 C 0.2693(14) -0.3014(6) 0.5288(5)
H1 H 0.18050 -0.40360 0.56010
C2 C 0.3569(13) -0.3011(6) 0.4009(5)
H2 H 0.31540 -0.40120 0.34680
C3 C 0.5057(13) -0.1521(6) 0.3533(4)
C4 C 0.5532(12) 0.0007(5) 0.4356(4)
C5 C 0.3105(12) -0.1541(6) 0.6101(4)
C6 C 0.6133(13) -0.1468(6) 0.2194(5)
C7 C 0.1882(13) -0.1535(6) 0.7448(5)
N1 N 0.7739(11) 0.0020(5) 0.1792(4)
N2 N 1.00000 0.50000 1.00000
H3 H 1.02940 0.52280 0.91670
H4 H 0.77480 0.52070 1.01500
H5? H 1.14320 0.56510 1.05140
H6? H 1.03840 0.39460 1.01200
O1 O 0.5766(10) -0.2795(5) 0.1446(3)
O2 O 0.0652(11) -0.2842(5) 0.7864(4)
Ag1* Ag 0.00000 0.00000 1.00000
C1A C 0.7307(14) 0.3014(6) 0.4712(5)
H1A H 0.81950 0.40360 0.43990
C2A C 0.6431(13) 0.3011(6) 0.5991(5)
H2A H 0.68460 0.40120 0.65320
C3A C 0.4943(13) 0.1521(6) 0.6467(4)
C4A C 0.4468(12) -0.0007(5) 0.5644(4)
C5A C 0.6895(12) 0.1541(6) 0.3899(4)
C6A C 0.3867(13) 0.1468(6) 0.7806(5)
C7A C 0.8118(13) 0.1535(6) 0.2552(5)
N1A N 0.2261(11) -0.0020(5) 0.8208(4)
N1A* N 1.2261(11) -0.0020(5) -0.1792(4)
H3A H 0.97060 0.47720 1.08330
H4A H 1.22520 0.47930 0.98500
O1A O 0.4234(10) 0.2795(5) 0.8554(3)
O2A O 0.9348(11) 0.2842(5) 0.2136(4)
#END
