
#######################################################################
#
#                 Cambridge Crystallographic Data Centre
#                                CCDC
#
#######################################################################
#
# If this CIF has been generated from an entry in the Cambridge
# Structural Database, then it will include bibliographic, chemical,
# crystal, experimental, refinement or atomic coordinate data resulting
# from the CCDC's data processing and validation procedures.
#
#######################################################################

data_CSD_CIF_ZECXIQ
_audit_creation_date 2013-02-01
_audit_creation_method CSD-ConQuest-V1
_database_code_CSD ZECXIQ
_database_code_depnum_ccdc_archive 'CCDC 885332'
_chemical_formula_sum 'C56 H56 Ag4 N16 O40 Si1 W12'
_chemical_formula_moiety
;
(C28 H28 Ag2 N8 2+)n,n(C28 H28 Ag2 N8 2+),n(O40 Si1 W12 4-)
;
_journal_coden_Cambridge 1350
_journal_volume 14
_journal_year 2012
_journal_page_first 6452
_journal_name_full 'CrystEngComm '
loop_
_publ_author_name
"Min Zhu"
"Sheng-Qun Su"
"Xue-Zhi Song"
"Zhao-Min Hao"
"Shu-Yan Song"
"Hong-Jie Zhang"
_chemical_name_systematic
;
catena-[(bis(\m~2~-1,1'-(Benzene-1,3-diyldimethanediyl)bis(1H-imidazole))-di-s
ilver(i))-(bis(\m~2~-1,1'-(benzene-1,3-diyldimethanediyl)bis(1H-imidazole))-di
-silver(i))-polyrotaxane 
(\m~12~-silicato)-tetracosakis(\m~2~-oxo)-dodeca-oxo-dodeca-tungsten]
;
_cell_volume   2099.667
_exptl_crystal_colour 'yellow'
_exptl_crystal_density_diffrn 3.368
_exptl_crystal_description 'block'
_diffrn_ambient_temperature 187
_refine_special_details
;
The central silicate unit of the Keggin anion has oxygen atoms disordered by 
symmetry. All other bridging oxygen atoms of the Keggin are disordered over 
two sites of equal occupancy.
;
#These two values have been output from a single CSD field.
_refine_ls_R_factor_gt 0.0335
_refine_ls_wR_factor_gt 0.0335
_symmetry_cell_setting triclinic
_symmetry_space_group_name_H-M 'P -1'
_symmetry_Int_Tables_number 2
loop_
_symmetry_equiv_pos_site_id
_symmetry_equiv_pos_as_xyz
1 x,y,z
2 -x,-y,-z
_cell_length_a 12.5035(4)
_cell_length_b 13.6536(5)
_cell_length_c 14.4885(5)
_cell_angle_alpha 115.173(1)
_cell_angle_beta 91.440(1)
_cell_angle_gamma 107.595(1)
_cell_formula_units_Z 1
loop_
_atom_type_symbol
_atom_type_radius_bond
C 0.68
H 0.23
Ag 1.28
N 0.68
O 0.66
Si 1.20
W 1.39
loop_
_atom_site_label
_atom_site_type_symbol
_atom_site_fract_x
_atom_site_fract_y
_atom_site_fract_z
Si1 Si 0.50000 0.00000 0.50000
W1 W 0.60024(3) 0.22948(3) 0.43647(3)
W2 W 0.35977(3) -0.01417(3) 0.27832(3)
W3 W 0.75325(3) 0.23414(3) 0.64748(3)
W4 W 0.51456(4) -0.27145(3) 0.33554(3)
W5 W 0.63431(3) -0.03638(3) 0.28202(3)
W6 W 0.76302(3) -0.04392(3) 0.49714(4)
Ag1 Ag 0.50000 1.00000 1.00000
Ag2 Ag -0.24999(6) -0.01821(6) 0.99544(5)
Ag3 Ag 0.00000 0.00000 1.00000
N1 N 0.3050(6) 0.3419(6) 1.2588(6)
N2 N -0.1956(6) 0.1614(6) 1.0915(5)
N3 N 0.4605(7) 0.8247(6) 0.9378(7)
N4 N 0.0475(6) 0.1264(6) 0.7828(5)
N5 N -0.1275(6) 0.3273(6) 1.2314(5)
N6 N 0.2779(6) 0.1914(6) 1.1097(6)
N7 N 0.4372(6) 0.6559(6) 0.9276(5)
N8 N 0.0122(6) 0.0245(6) 0.8698(6)
C1 C 0.0748(10) 0.3829(9) 0.9321(8)
H1 H -0.00320 0.34620 0.92430
C2 C 0.3132(9) 0.4088(9) 1.3706(8)
H2 H 0.34430 0.49040 1.38950
H3 H 0.36510 0.39160 1.40730
C3 C 0.1326(10) 0.4840(9) 1.0221(8)
H4 H 0.09390 0.51290 1.07560
C4 C 0.2822(8) 0.2848(9) 1.0920(8)
H5 H 0.27610 0.28380 1.02760
C5 C 0.4609(8) 0.7672(8) 0.9909(8)
H6 H 0.47560 0.79990 1.06280
C6 C 0.2969(8) 0.3778(9) 1.1850(9)
H7 H 0.30060 0.45110 1.19600
C7 C 0.2927(8) 0.2299(8) 1.2096(7)
H8 H 0.29440 0.18520 1.24300
C8 C -0.0057(8) -0.0485(8) 0.7670(7)
H9 H -0.02950 -0.12850 0.73830
C9 C 0.1990(8) 0.3824(8) 1.4033(7)
C10 C 0.2469(10) 0.5410(9) 1.0319(7)
H10 H 0.28460 0.60850 1.09210
C11 C 0.0160(8) 0.0121(9) 0.7134(7)
H11 H 0.01070 -0.01790 0.64190
C12 C -0.1698(7) 0.2129(7) 1.1925(7)
H12 H -0.17980 0.17410 1.23270
C13 C 0.4188(8) 0.6405(8) 0.8280(7)
H13 H 0.40010 0.57170 0.76740
C14 C 0.1703(10) 0.3236(8) 1.4607(8)
H14 H 0.22530 0.30350 1.48560
C15 C 0.4279(8) 0.5656(8) 0.9608(7)
H15 H 0.46740 0.60120 1.03180
H16 H 0.46420 0.51330 0.91740
C16 C 0.4335(8) 0.7461(9) 0.8364(9)
H17 H 0.42620 0.76260 0.78100
C17 C 0.3067(9) 0.4996(8) 0.9538(7)
C18 C -0.1699(8) 0.2497(8) 1.0643(8)
H18 H -0.17940 0.24000 0.99670
C19 C 0.0440(8) 0.1296(8) 0.8766(7)
H19 H 0.06160 0.19700 0.93850
C20 C 0.2485(9) 0.3953(8) 0.8649(7)
H20 H 0.28770 0.36480 0.81230
C21 C 0.0612(10) 0.2933(9) 1.4826(8)
H21 H 0.04300 0.25320 1.52160
C22 C -0.1294(8) 0.3512(8) 1.1487(8)
H22 H -0.10690 0.42380 1.15110
C23 C 0.0044(8) 0.3815(7) 1.3879(7)
C24 C -0.0844(8) 0.4098(8) 1.3415(7)
H23 H -0.14730 0.40820 1.37930
H24 H -0.05140 0.48710 1.34810
C25 C -0.0185(10) 0.3234(8) 1.4461(8)
H25 H -0.09140 0.30370 1.46140
C26 C 0.1333(9) 0.3377(8) 0.8550(7)
C27 C 0.0742(9) 0.2258(9) 0.7594(8)
H26 H 0.00420 0.22780 0.73120
H27 H 0.12280 0.21640 0.70740
C28 C 0.1146(8) 0.4125(7) 1.3667(7)
H28 H 0.13230 0.45320 1.32820
O1? O 0.8912(16) -0.0579(17) 0.4900(14)
O2 O 0.8805(18) -0.0793(18) 0.4913(16)
O3 O 0.5230(6) -0.4003(6) 0.2598(5)
O4 O 0.6944(6) -0.0549(7) 0.1765(5)
O5? O 0.7884(10) 0.1142(10) 0.5511(9)
O6 O 0.8372(10) 0.1295(10) 0.5878(9)
O7 O 0.8716(6) 0.3455(6) 0.7192(5)
O8 O 0.6529(7) 0.3404(7) 0.4084(8)
O9 O 0.5662(8) 0.1358(8) 0.5411(7)
O10 O 0.2941(8) -0.0171(7) 0.1742(6)
O11 O 0.6214(8) 0.0399(8) 0.5744(7)
O12 O 0.4823(6) -0.0569(6) 0.2284(6)
O13 O 0.4633(6) 0.1441(7) 0.3446(6)
O14 O 0.5796(9) -0.0674(9) 0.4211(8)
O15? O 0.7052(10) -0.0541(10) 0.6013(9)
O16 O 0.2472(11) 0.0382(10) 0.3585(10)
O17? O 0.6204(10) 0.2692(11) 0.7017(8)
O18 O 0.6531(11) 0.3219(11) 0.7091(9)
O19? O 0.2547(11) -0.1713(10) 0.2434(10)
O20 O 0.3061(10) -0.1491(10) 0.2846(9)
O21? O 0.7136(10) 0.2342(11) 0.5329(8)
O22 O 0.7397(11) 0.2886(12) 0.5409(9)
O23? O 0.5435(11) 0.3192(12) 0.5501(10)
O24 O 0.5127(11) 0.2643(12) 0.5409(10)
O25 O 0.6646(6) 0.1215(6) 0.3436(6)
O26? O 0.3193(10) 0.2122(10) 0.6009(9)
O27 O 0.6445(10) -0.1773(10) 0.4411(9)
O28 O 0.5160(8) 0.0362(8) 0.4107(7)
O29? O 0.4532(10) 0.1767(10) 0.7226(9)
O30 O 0.5808(10) -0.2119(10) 0.2348(9)
O31? O 0.7687(10) -0.0369(10) 0.3538(9)
O32 O 0.7305(9) -0.0087(9) 0.3949(8)
W1A W 0.39976(3) -0.22948(3) 0.56353(3)
W2A W 0.64023(3) 0.01417(3) 0.72168(3)
W3A W 0.24675(3) -0.23414(3) 0.35252(3)
W4A W 0.48544(4) 0.27145(3) 0.66446(3)
W5A W 0.36569(3) 0.03638(3) 0.71798(3)
W6A W 0.23698(3) 0.04392(3) 0.50286(4)
Ag2A Ag 0.24999(6) 0.01821(6) 1.00456(5)
Ag3* Ag 1.00000 2.00000 1.00000
N1A N -0.3050(6) -0.3419(6) 0.7412(6)
N2A N 0.1956(6) -0.1614(6) 0.9085(5)
N3A N 0.5395(7) 1.1753(6) 1.0622(7)
N4A N 0.9525(6) 1.8736(6) 1.2172(5)
N5A N 0.1275(6) -0.3273(6) 0.7686(5)
N6A N -0.2779(6) -0.1914(6) 0.8903(6)
N7A N 0.5628(6) 1.3441(6) 1.0724(5)
N8A N 0.9878(6) 1.9755(6) 1.1302(6)
N8A* N -0.0122(6) -0.0245(6) 1.1302(6)
C1A C 0.9252(10) 1.6171(9) 1.0679(8)
H1A H 1.00320 1.65380 1.07570
C2A C -0.3132(9) -0.4088(9) 0.6294(8)
H2A H -0.34430 -0.49040 0.61050
H3A H -0.36510 -0.39160 0.59270
C3A C 0.8674(10) 1.5160(9) 0.9779(8)
H4A H 0.90610 1.48710 0.92440
C4A C -0.2822(8) -0.2848(9) 0.9080(8)
H5A H -0.27610 -0.28380 0.97240
C5A C 0.5391(8) 1.2328(8) 1.0091(8)
H6A H 0.52440 1.20010 0.93720
C6A C -0.2969(8) -0.3778(9) 0.8150(9)
H7A H -0.30060 -0.45110 0.80400
C7A C -0.2927(8) -0.2299(8) 0.7904(7)
H8A H -0.29440 -0.18520 0.75700
C8A C 1.0057(8) 2.0485(8) 1.2330(7)
H9A H 1.02950 2.12850 1.26170
C9A C -0.1990(8) -0.3824(8) 0.5967(7)
C10A C 0.7531(10) 1.4590(9) 0.9681(7)
H10A H 0.71540 1.39150 0.90790
C11A C 0.9840(8) 1.9879(9) 1.2866(7)
H11A H 0.98930 2.01790 1.35810
C12A C 0.1698(7) -0.2129(7) 0.8075(7)
H12A H 0.17980 -0.17410 0.76730
C13A C 0.5812(8) 1.3595(8) 1.1720(7)
H13A H 0.59990 1.42830 1.23260
C14A C -0.1703(10) -0.3236(8) 0.5393(8)
H14A H -0.22530 -0.30350 0.51440
C15A C 0.5721(8) 1.4344(8) 1.0392(7)
H15A H 0.53260 1.39880 0.96820
H16A H 0.53580 1.48670 1.08260
C16A C 0.5665(8) 1.2539(9) 1.1636(9)
H17A H 0.57380 1.23740 1.21900
C17A C 0.6933(9) 1.5004(8) 1.0462(7)
C18A C 0.1699(8) -0.2497(8) 0.9357(8)
H18A H 0.17940 -0.24000 1.00330
C19A C 0.9560(8) 1.8704(8) 1.1234(7)
H19A H 0.93840 1.80300 1.06150
C20A C 0.7515(9) 1.6047(8) 1.1351(7)
H20A H 0.71230 1.63520 1.18770
C21A C -0.0612(10) -0.2933(9) 0.5174(8)
H21A H -0.04300 -0.25320 0.47840
C22A C 0.1294(8) -0.3512(8) 0.8513(8)
H22A H 0.10690 -0.42380 0.84890
C23A C -0.0044(8) -0.3815(7) 0.6121(7)
C24A C 0.0844(8) -0.4098(8) 0.6585(7)
H23A H 0.14730 -0.40820 0.62070
H24A H 0.05140 -0.48710 0.65190
C25A C 0.0185(10) -0.3234(8) 0.5539(8)
H25A H 0.09140 -0.30370 0.53860
C26A C 0.8667(9) 1.6623(8) 1.1450(7)
C27A C 0.9258(9) 1.7742(9) 1.2406(8)
H26A H 0.99580 1.77220 1.26880
H27A H 0.87720 1.78360 1.29260
C28A C -0.1146(8) -0.4125(7) 0.6333(7)
H28A H -0.13230 -0.45320 0.67180
O2A O 0.1195(18) 0.0793(18) 0.5087(16)
O3A O 0.4770(6) 0.4003(6) 0.7402(5)
O4A O 0.3056(6) 0.0549(7) 0.8235(5)
O6A O 0.1628(10) -0.1295(10) 0.4122(9)
O7A O 0.1284(6) -0.3455(6) 0.2808(5)
O8A O 0.3471(7) -0.3404(7) 0.5916(8)
O9A O 0.4338(8) -0.1358(8) 0.4589(7)
O10A O 0.7059(8) 0.0171(7) 0.8258(6)
O11A O 0.3786(8) -0.0399(8) 0.4256(7)
O12A O 0.5177(6) 0.0569(6) 0.7716(6)
O13A O 0.5367(6) -0.1441(7) 0.6554(6)
O14A O 0.4204(9) 0.0674(9) 0.5789(8)
O16A O 0.7528(11) -0.0382(10) 0.6415(10)
O18A O 0.3469(11) -0.3219(11) 0.2909(9)
O20A O 0.6939(10) 0.1491(10) 0.7154(9)
O22A O 0.2603(11) -0.2886(12) 0.4591(9)
O24A O 0.4873(11) -0.2643(12) 0.4591(10)
O25A O 0.3354(6) -0.1215(6) 0.6564(6)
O27A O 0.3555(10) 0.1773(10) 0.5589(9)
O28A O 0.4840(8) -0.0362(8) 0.5893(7)
O30A O 0.4192(10) 0.2119(10) 0.7652(9)
O32A O 0.2695(9) 0.0087(9) 0.6051(8)
#END
