
#######################################################################
#
#                 Cambridge Crystallographic Data Centre
#                                CCDC
#
#######################################################################
#
# If this CIF has been generated from an entry in the Cambridge
# Structural Database, then it will include bibliographic, chemical,
# crystal, experimental, refinement or atomic coordinate data resulting
# from the CCDC's data processing and validation procedures.
#
#######################################################################

data_CSD_CIF_ZECXEM
_audit_creation_date 2013-02-01
_audit_creation_method CSD-ConQuest-V1
_database_code_CSD ZECXEM
_database_code_depnum_ccdc_archive 'CCDC 885331'
_chemical_formula_sum 'C56 H56 Ag4 N16 O40 Si1 W12'
_chemical_formula_moiety
;
(C14 H14 Ag1 N4 1+)2n,n(C28 H28 Ag2 N8 2+),n(O40 Si1 W12 4-)
;
_journal_coden_Cambridge 1350
_journal_volume 14
_journal_year 2012
_journal_page_first 6452
_journal_name_full 'CrystEngComm '
loop_
_publ_author_name
"Min Zhu"
"Sheng-Qun Su"
"Xue-Zhi Song"
"Zhao-Min Hao"
"Shu-Yan Song"
"Hong-Jie Zhang"
_chemical_name_systematic
;
catena-[bis((\m~2~-1,1'-(Benzene-1,2-diyldimethanediyl)bis(1H-imidazole))-silv
er(i)) 
bis(\m~2~-1,1'-(benzene-1,2-diyldimethanediyl)bis(1H-imidazole))-di-silver(i) 
(\m~12~-silicato)-tetracosakis(\m~2~-oxo)-dodeca-oxo-dodeca-tungsten]
;
_cell_volume   8491.696
_exptl_crystal_colour 'yellow'
_exptl_crystal_density_diffrn 3.331
_exptl_crystal_description 'block'
_diffrn_ambient_temperature 187
_refine_special_details
;
The central silicate unit of the Keggin anion has oxygen atoms disordered by 
symmetry. All other bridging oxygen atoms of the Keggin are disordered over 
two sites of equal occupancy.
;
#These two values have been output from a single CSD field.
_refine_ls_R_factor_gt 0.0326
_refine_ls_wR_factor_gt 0.0326
_symmetry_cell_setting monoclinic
_symmetry_space_group_name_H-M 'C 2/c'
_symmetry_Int_Tables_number 15
loop_
_symmetry_equiv_pos_site_id
_symmetry_equiv_pos_as_xyz
1 x,y,z
2 -x,y,1/2-z
3 1/2+x,1/2+y,z
4 1/2-x,1/2+y,1/2-z
5 -x,-y,-z
6 x,-y,-1/2+z
7 -1/2-x,-1/2-y,-z
8 -1/2+x,-1/2-y,-1/2+z
_cell_length_a 25.7590(8)
_cell_length_b 13.5930(4)
_cell_length_c 27.1420(8)
_cell_angle_alpha 90
_cell_angle_beta 116.68
_cell_angle_gamma 90
_cell_formula_units_Z 4
loop_
_atom_type_symbol
_atom_type_radius_bond
C 0.68
H 0.23
Ag 1.45
N 0.68
O 0.68
Si 1.20
W 1.36
loop_
_atom_site_label
_atom_site_type_symbol
_atom_site_fract_x
_atom_site_fract_y
_atom_site_fract_z
Si1 Si 0.00000 0.12815(19) 0.25000
W1 W 0.024183(15) 0.12817(2) 0.388297(13)
W2 W 0.119313(14) -0.00225(2) 0.350695(13)
W3 W 0.094600(14) 0.25918(2) 0.211880(13)
W4 W 0.00000 -0.13183(3) 0.25000
W5 W 0.00000 0.38850(3) 0.25000
W6 W 0.095040(15) -0.00056(3) 0.212220(15)
W7 W 0.119084(15) 0.25709(3) 0.350473(15)
Ag1 Ag 0.25046(3) -0.11760(4) 0.32321(3)
Ag2 Ag 0.06566(3) 0.05196(5) 0.55494(3)
N1 N 0.2928(3) -0.8186(5) 0.3241(3)
N2 N 0.2176(3) -0.2600(5) 0.3160(3)
N3 N 0.2870(3) -0.9785(5) 0.3296(3)
N4 N 0.2134(3) -0.4210(5) 0.3110(3)
N5 N 0.0949(3) -0.0842(5) 0.5404(3)
N6 N 0.0353(3) 0.1901(6) 0.5691(3)
N7 N 0.1279(3) -0.1999(5) 0.5049(3)
N8 N 0.0103(4) -0.3024(6) 0.4085(3)
O1 O 0.0562(5) 0.3359(8) 0.3174(5)
O2? O 0.0715(5) 0.3832(8) 0.3164(5)
O3 O 0.1454(5) 0.2837(8) 0.2904(4)
O4? O -0.1280(5) 0.2443(8) 0.2113(4)
O5 O 0.0492(4) 0.1242(6) 0.3142(4)
O6 O 0.1160(5) 0.1233(7) 0.2250(5)
O7? O -0.1305(5) 0.1329(7) 0.2904(5)
O8 O -0.0403(5) 0.2328(8) 0.3649(4)
O9? O -0.0287(5) 0.2172(8) 0.3505(5)
O10 O -0.0401(4) 0.2259(7) 0.2398(4)
O11 O -0.0401(4) 0.0362(7) 0.3674(4)
O12? O -0.0283(5) 0.0254(7) 0.3481(4)
O13 O 0.0670(5) 0.2291(7) 0.3752(5)
O14? O 0.0876(5) 0.2198(7) 0.4054(4)
O15 O 0.1285(5) 0.0112(8) 0.2869(4)
O16? O -0.1450(5) -0.0322(8) 0.2065(4)
O17 O 0.1411(3) 0.3180(5) 0.1942(3)
O18 O 0.1373(4) 0.1343(7) 0.3490(4)
O19? O 0.1598(5) 0.1226(7) 0.3755(5)
O20 O 0.0668(5) 0.0346(8) 0.3788(5)
O21? O 0.0874(5) 0.0232(8) 0.4030(5)
O22 O -0.0302(4) 0.1310(6) 0.2901(4)
O23 O 0.00000 -0.2532(6) 0.25000
O24 O 0.1401(2) -0.0623(4) 0.1938(2)
O25 O 0.0263(6) 0.1159(9) 0.4508(5)
O26? O 0.0446(6) 0.1379(9) 0.4567(5)
O27 O 0.1740(3) 0.3176(5) 0.3980(2)
O28 O 0.0410(4) 0.0310(7) 0.2638(4)
O29 O 0.0396(5) 0.3427(9) 0.2159(5)
O30? O 0.0553(5) 0.3796(8) 0.2126(5)
O31 O 0.1751(3) -0.0648(6) 0.3982(3)
O32 O 0.0554(5) -0.1281(8) 0.2196(4)
O33? O -0.0397(4) -0.0788(8) 0.2886(4)
O34 O 0.0726(5) -0.1238(8) 0.3241(4)
O35? O 0.0561(5) -0.0866(8) 0.3123(5)
O36 O 0.00000 0.5115(6) 0.25000
C1 C 0.2450(4) -0.3411(5) 0.3147(4)
H1 H 0.28180 -0.34250 0.31620
C2 C 0.1660(4) -0.2904(7) 0.3138(5)
H2 H 0.13780 -0.24910 0.31510
C3 C 0.3417(4) -0.9547(7) 0.3350(4)
H3 H 0.37090 -0.99930 0.33970
C4 C 0.3454(4) -0.8556(6) 0.3323(4)
H4 H 0.37750 -0.81980 0.33540
C5 C 0.2624(4) -0.5692(5) 0.3668(3)
C6 C 0.2679(4) -0.5227(7) 0.4140(4)
H5 H 0.25320 -0.45950 0.41170
C7 C 0.2949(4) -0.5688(7) 0.4647(4)
H6 H 0.29840 -0.53640 0.49620
C8 C 0.3109(4) -0.7106(7) 0.4217(4)
H7 H 0.32530 -0.77420 0.42450
C9 C 0.2761(4) -0.7147(5) 0.3176(4)
H8 H 0.23560 -0.70960 0.29080
H9 H 0.29890 -0.67990 0.30290
C10 C 0.2317(4) -0.5225(6) 0.3105(4)
H10 H 0.25740 -0.52400 0.29320
H11 H 0.19780 -0.56160 0.28810
C11 C 0.2839(3) -0.6646(6) 0.3700(3)
C12 C 0.1620(4) -0.3890(7) 0.3095(4)
H12 H 0.13080 -0.42780 0.30610
C13 C 0.1316(5) -0.2360(8) 0.5534(4)
H13 H 0.14600 -0.29690 0.56920
C14 C 0.1100(4) -0.1657(8) 0.5735(4)
H14 H 0.10590 -0.17140 0.60570
C15 C 0.1075(4) -0.1080(6) 0.5000(4)
H15 H 0.10290 -0.06570 0.47140
C16 C 0.0963(5) -0.4041(8) 0.4280(4)
C17 C 0.0457(5) -0.3493(9) 0.3836(4)
H16 H 0.02170 -0.39460 0.35470
H17 H 0.06000 -0.29910 0.36740
C18 C 0.1443(5) -0.3555(7) 0.4673(4)
C19 C 0.0929(5) -0.5054(8) 0.4305(4)
H18 H 0.06080 -0.53750 0.40360
C20 C 0.1517(5) -0.2471(7) 0.4696(5)
H19 H 0.19270 -0.23160 0.48420
H20 H 0.13200 -0.22050 0.43260
C21 C 0.1884(5) -0.4116(8) 0.5071(4)
H21 H 0.22200 -0.38100 0.53270
C22 C 0.1824(5) -0.5140(8) 0.5089(5)
H22 H 0.21140 -0.55040 0.53660
C23 C 0.1350(5) -0.5599(8) 0.4710(5)
H23 H 0.13100 -0.62780 0.47230
C24 C 0.2593(4) -0.8947(6) 0.3232(4)
H24 H 0.22140 -0.88890 0.31860
C25 C 0.0352(4) 0.2752(7) 0.5429(4)
H25 H 0.05220 0.28360 0.51940
C26 C -0.0071(5) -0.3456(7) 0.4439(4)
H26 H -0.00080 -0.41040 0.45630
C27 C 0.0081(4) 0.2104(7) 0.5986(4)
H27 H 0.00250 0.16570 0.62160
C28 C 0.3163(4) -0.6617(7) 0.4686(4)
H28 H 0.33470 -0.69230 0.50280
W1A W -0.024183(15) 0.12817(2) 0.111703(13)
W2A W -0.119313(14) -0.00225(2) 0.149305(13)
W3A W -0.094600(14) 0.25918(2) 0.288120(13)
W6A W -0.095040(15) -0.00056(3) 0.287780(15)
W7A W -0.119084(15) 0.25709(3) 0.149527(15)
Ag1* Ag 0.25046(3) -1.11760(4) 0.32321(3)
Ag2D Ag -0.06566(3) -0.05196(5) 0.44506(3)
N3* N 0.2870(3) 0.0215(5) 0.3296(3)
N5D N -0.0949(3) 0.0842(5) 0.4596(3)
N6D N -0.0353(3) -0.1901(6) 0.4309(3)
N7D N -0.1279(3) 0.1999(5) 0.4951(3)
N8D N -0.0103(4) 0.3024(6) 0.5915(3)
O1A O -0.0562(5) 0.3359(8) 0.1826(5)
O3A O -0.1454(5) 0.2837(8) 0.2096(4)
O5A O -0.0492(4) 0.1242(6) 0.1858(4)
O6A O -0.1160(5) 0.1233(7) 0.2750(5)
O8A O 0.0403(5) 0.2328(8) 0.1351(4)
O10A O 0.0401(4) 0.2259(7) 0.2602(4)
O11A O 0.0401(4) 0.0362(7) 0.1326(4)
O13A O -0.0670(5) 0.2291(7) 0.1248(5)
O15A O -0.1285(5) 0.0112(8) 0.2131(4)
O17A O -0.1411(3) 0.3180(5) 0.3058(3)
O18A O -0.1373(4) 0.1343(7) 0.1510(4)
O20A O -0.0668(5) 0.0346(8) 0.1212(5)
O22A O 0.0302(4) 0.1310(6) 0.2099(4)
O24A O -0.1401(2) -0.0623(4) 0.3062(2)
O25A O -0.0263(6) 0.1159(9) 0.0492(5)
O27A O -0.1740(3) 0.3176(5) 0.1020(2)
O28A O -0.0410(4) 0.0310(7) 0.2362(4)
O29A O -0.0396(5) 0.3427(9) 0.2841(5)
O31A O -0.1751(3) -0.0648(6) 0.1018(3)
O32A O -0.0554(5) -0.1281(8) 0.2804(4)
O34A O -0.0726(5) -0.1238(8) 0.1759(4)
C13D C -0.1316(5) 0.2360(8) 0.4466(4)
H13D H -0.14600 0.29690 0.43080
C14D C -0.1100(4) 0.1657(8) 0.4265(4)
H14D H -0.10590 0.17140 0.39430
C15D C -0.1075(4) 0.1080(6) 0.5000(4)
H15D H -0.10290 0.06570 0.52860
C16D C -0.0963(5) 0.4041(8) 0.5720(4)
C17D C -0.0457(5) 0.3493(9) 0.6164(4)
H16D H -0.02170 0.39460 0.64530
H17D H -0.06000 0.29910 0.63260
C18D C -0.1443(5) 0.3555(7) 0.5327(4)
C19D C -0.0929(5) 0.5054(8) 0.5695(4)
H18D H -0.06080 0.53750 0.59640
C20D C -0.1517(5) 0.2471(7) 0.5304(5)
H19D H -0.19270 0.23160 0.51580
H20D H -0.13200 0.22050 0.56740
C21D C -0.1884(5) 0.4116(8) 0.4929(4)
H21D H -0.22200 0.38100 0.46730
C22D C -0.1824(5) 0.5140(8) 0.4911(5)
H22D H -0.21140 0.55040 0.46340
C23D C -0.1350(5) 0.5599(8) 0.5290(5)
H23D H -0.13100 0.62780 0.52770
C25D C -0.0352(4) -0.2752(7) 0.4571(4)
H25D H -0.05220 -0.28360 0.48060
C26D C 0.0071(5) 0.3456(7) 0.5561(4)
H26D H 0.00080 0.41040 0.54370
C27D C -0.0081(4) -0.2104(7) 0.4014(4)
H27D H -0.00250 -0.16570 0.37840
#END
