
#######################################################################
#
#                 Cambridge Crystallographic Data Centre
#                                CCDC
#
#######################################################################
#
# If this CIF has been generated from an entry in the Cambridge
# Structural Database, then it will include bibliographic, chemical,
# crystal, experimental, refinement or atomic coordinate data resulting
# from the CCDC's data processing and validation procedures.
#
#######################################################################

data_CSD_CIF_ZECXUC
_audit_creation_date 2013-02-01
_audit_creation_method CSD-ConQuest-V1
_database_code_CSD ZECXUC
_database_code_depnum_ccdc_archive 'CCDC 885334'
_chemical_formula_sum 'C140 H146 Ag10 K4 N40 O126 P4 W36'
_chemical_formula_moiety
;
(C140 H140 Ag10 N40 10+)n,4n(K1 1+),2n(H1 O62 P2 W18 7-),2n(H2 O1)
;
_journal_coden_Cambridge 1350
_journal_volume 14
_journal_year 2012
_journal_page_first 6452
_journal_name_full 'CrystEngComm '
loop_
_publ_author_name
"Min Zhu"
"Sheng-Qun Su"
"Xue-Zhi Song"
"Zhao-Min Hao"
"Shu-Yan Song"
"Hong-Jie Zhang"
_chemical_name_systematic
;
catena-[decakis(\m~2~-1,1'-(Benzene-1,2-diyldimethanediyl)bis(1H-imidazole))-d
eca-silver(i) tetrakis(potassium(i)) 
bis(\m~9~-phosphato)-(\m~2~-hydroxo)-pentatriacontakis(\m~2~-oxo)-octadeca-oxo
-octadeca-tungsten dihydrate]
;
_cell_volume   5819.201
_exptl_crystal_colour 'yellow'
_exptl_crystal_density_diffrn 3.541
_exptl_special_details
;
An additional hydride ligand, required for charge-balance, was not located 
from the diffraction data
;
_exptl_crystal_description 'block'
_diffrn_ambient_temperature 187
#These two values have been output from a single CSD field.
_refine_ls_R_factor_gt 0.0383
_refine_ls_wR_factor_gt 0.0383
_symmetry_cell_setting triclinic
_symmetry_space_group_name_H-M 'P -1'
_symmetry_Int_Tables_number 2
loop_
_symmetry_equiv_pos_site_id
_symmetry_equiv_pos_as_xyz
1 x,y,z
2 -x,-y,-z
_cell_length_a 16.7690(6)
_cell_length_b 16.8322(6)
_cell_length_c 21.3485(7)
_cell_angle_alpha 88.713(1)
_cell_angle_beta 82.497(1)
_cell_angle_gamma 76.926(1)
_cell_formula_units_Z 1
loop_
_atom_type_symbol
_atom_type_radius_bond
C 0.68
H 0.23
Ag 1.47
K 0.80
N 0.68
O 0.68
P 1.05
W 1.35
loop_
_atom_site_label
_atom_site_type_symbol
_atom_site_fract_x
_atom_site_fract_y
_atom_site_fract_z
W1 W 0.58384(3) 0.39753(3) -0.79581(2)
W2 W 1.06081(3) 0.32569(3) -0.75216(2)
W3 W 0.99947(3) 0.16768(3) -0.84279(2)
W4 W 0.58108(3) 0.03597(3) -0.77713(2)
W5 W 0.80535(3) -0.00690(3) -0.76281(2)
W6 W 0.60643(3) 0.14348(3) -0.91118(2)
W7 W 0.97774(3) 0.06813(3) -0.70548(2)
W8 W 0.89446(3) 0.38382(3) -0.85266(2)
W9 W 0.75374(3) 0.47243(3) -0.73385(2)
W10 W 1.02458(3) 0.23139(3) -0.61346(2)
W11 W 0.47311(3) 0.23028(3) -0.78511(2)
W12 W 0.82954(3) 0.08950(3) -0.90062(2)
W13 W 0.72559(3) 0.30628(3) -0.91295(2)
W14 W 0.55703(3) 0.29096(3) -0.64464(2)
W15 W 0.72965(3) 0.36280(3) -0.58386(2)
W16 W 0.92468(3) 0.42713(3) -0.63453(2)
W17 W 0.82657(3) 0.16648(3) -0.57281(2)
W18 W 0.65389(3) 0.09524(3) -0.63275(2)
Ag1 Ag 0.93237(7) 0.61087(7) -0.50412(5)
Ag2 Ag 1.48952(6) -0.10967(6) -0.86842(5)
Ag3 Ag 1.50000 1.00000 -0.50000
Ag4 Ag 2.31775(6) -0.24112(6) -0.92706(5)
Ag5 Ag 1.50000 0.00000 -1.00000
Ag6 Ag 1.13744(9) 0.31643(10) -0.35817(7)
P1 P 0.68722(19) 0.19348(18) -0.77666(14)
P2 P 0.86840(19) 0.27234(19) -0.71340(14)
O1 O 0.4788(5) 0.1175(5) -0.7675(4)
O2 O 0.5454(9) 0.6427(10) -0.7399(7)
O3 O 0.5155(5) 0.3262(5) -0.8079(4)
O4 O 0.5176(11) 0.5836(11) -0.5285(8)
O5 O 0.8308(5) 0.3938(5) -0.5872(4)
O6 O 0.8012(5) 0.2057(5) -0.9165(4)
O7 O 1.0194(5) 0.4204(5) -0.6955(4)
O8 O 0.5695(5) 0.1868(5) -0.6042(4)
O9 O 0.9258(5) 0.2099(5) -0.5730(4)
O10 O 0.9326(6) 0.4271(5) -0.9207(4)
O11 O 0.7203(5) 0.0878(5) -0.9122(4)
O12 O 0.5719(5) 0.3686(5) -0.7084(4)
O13 O 0.8899(5) 0.0953(5) -0.6361(4)
O14 O 0.7298(5) 0.1423(5) -0.5931(4)
O15 O 1.0292(5) 0.1396(5) -0.6674(4)
O16 O 0.8417(5) -0.0075(5) -0.8517(4)
O17 O 0.9002(5) 0.0226(5) -0.7460(4)
O18 O 1.0994(5) 0.2657(5) -0.6810(4)
O19 O 0.5916(5) 0.0668(5) -0.6923(4)
O20 O 1.0372(5) 0.0806(5) -0.7864(4)
O21 O 0.4944(5) 0.2506(5) -0.7047(4)
O22 O 0.6660(5) 0.2016(5) -0.7047(4)
O23 O 0.9401(5) 0.2694(5) -0.8677(4)
O24 O 0.6151(5) 0.1637(5) -0.8017(4)
O25 O 1.1495(5) 0.3488(5) -0.7874(4)
O26 O 0.7493(5) 0.0357(5) -0.6838(4)
O27 O 0.9797(5) 0.3840(5) -0.8047(4)
O28 O 0.5425(5) -0.0492(5) -0.7645(4)
O29 O 0.6402(5) 0.3163(5) -0.6050(4)
O30 O 0.8513(5) 0.4709(5) -0.6914(4)
O31 O 0.8382(5) 0.1092(5) -0.5061(4)
O32 O 0.9276(6) 0.5123(6) -0.5936(4)
O33 O 0.8240(5) 0.4776(5) -0.8121(4)
O34 O 0.9067(5) 0.1907(5) -0.7489(4)
O35 O 0.7092(5) 0.5740(5) -0.7214(4)
O36 O 0.9236(5) 0.1123(5) -0.8680(4)
O37 O 0.5820(5) 0.0478(5) -0.8651(4)
O38 O 0.9928(5) 0.3426(5) -0.5879(4)
O39 O 0.5875(5) 0.1245(5) -0.9852(4)
O40 O 1.0772(5) 0.1437(5) -0.9048(4)
O41 O 1.0931(5) 0.1941(6) -0.5615(4)
O42 O 0.8782(5) 0.0503(5) -0.9715(4)
O43 O 0.7970(5) 0.3602(5) -0.8833(4)
O44 O 0.6315(5) 0.3913(5) -0.8809(4)
O45 O 0.4997(5) 0.2008(5) -0.8741(4)
O46 O 0.6763(5) 0.4416(5) -0.7755(4)
O47 O 1.0365(5) -0.0219(5) -0.6813(4)
O48 O 0.7643(5) 0.2697(5) -0.5349(4)
O49 O 0.6949(5) -0.0056(5) -0.7848(4)
O50 O 0.6444(5) 0.2396(5) -0.9220(4)
O51 O 0.7128(5) 0.4260(5) -0.6586(4)
O52 O 0.6386(5) 0.0264(5) -0.5749(4)
O53 O 0.8067(5) 0.2613(5) -0.6556(4)
O54 O 0.8286(5) 0.3393(5) -0.7584(4)
O55 O 0.6906(5) 0.2765(5) -0.8070(4)
O56 O 0.7665(5) 0.1300(5) -0.7958(4)
O57 O 0.4716(5) 0.3446(5) -0.5979(4)
O58 O 0.7357(5) 0.3351(5) -0.9915(4)
O59 O 0.6724(5) 0.4287(5) -0.5262(4)
O60 O 1.0565(5) 0.2328(5) -0.7952(4)
O61 O 0.3694(5) 0.2654(5) -0.7813(4)
O62 O 0.5140(5) 0.4891(5) -0.7965(4)
O63 O 0.8292(5) -0.1085(5) -0.7475(4)
O64 O 0.9413(5) 0.3024(5) -0.6885(4)
K1 K 0.14747(18) 0.05056(17) -0.52746(15)
K2 K 0.62831(17) 0.56759(17) -0.48032(13)
C1 C 2.1513(8) -0.1138(8) -0.8692(7)
H1 H 2.17450 -0.08850 -0.84030
C2 C 2.1367(7) -0.1956(7) -0.9394(6)
H2 H 2.14810 -0.23720 -0.96950
C3 C 2.0701(8) -0.0935(8) -0.8796(6)
H3 H 2.02930 -0.05090 -0.86070
C4 C 1.9869(8) -0.1500(8) -0.9524(6)
H4 H 1.99980 -0.14840 -0.99800
H5 H 1.94370 -0.10230 -0.93920
C5 C 1.9564(7) -0.2265(7) -0.9340(6)
C6 C 1.8928(8) -0.2235(7) -0.8858(6)
H6 H 1.86640 -0.17400 -0.86610
C7 C 1.5487(9) 0.8848(10) -0.6192(7)
H7 H 1.58910 0.91140 -0.63680
C8 C 1.5279(11) 0.8201(11) -0.6456(8)
H8 H 1.55150 0.79420 -0.68380
C9 C 0.7257(10) 0.5235(11) -0.4154(8)
H9 H 0.68550 0.49330 -0.41470
C10 C 1.365(1) 0.1987(10) -0.5691(8)
H10 H 1.42070 0.16930 -0.56440
H11 H 1.36900 0.23980 -0.60120
C11 C 0.6880(9) 0.5817(10) -0.3043(7)
H12 H 0.62930 0.59450 -0.30770
H13 H 0.70040 0.62740 -0.28360
C12 C 0.8728(11) 0.4143(11) -0.1655(7)
H14 H 0.86370 0.39000 -0.12430
H15 H 0.88580 0.46670 -0.15940
C13 C 1.3132(11) 0.3152(10) -0.4256(8)
H16 H 1.32410 0.34850 -0.39510
C14 C 1.2534(10) 0.2467(10) -0.4781(7)
H17 H 1.21400 0.22170 -0.49090
C15 C 1.3663(11) 0.2814(10) -0.4757(7)
H18 H 1.42070 0.28630 -0.48520
C16 C 1.0373(11) 0.7248(10) -0.5672(7)
H19 H 1.00720 0.76660 -0.54010
C17 C 0.6642(11) 0.4440(11) -0.2640(9)
H20 H 0.61960 0.45000 -0.28690
C18 C 0.7085(9) 0.5063(9) -0.2646(7)
C19 C 0.7516(11) 0.3684(10) -0.1949(8)
H21 H 0.76460 0.32280 -0.16970
C20 C 1.0005(12) 0.3850(11) -0.2452(7)
H22 H 1.00600 0.43870 -0.24940
C21 C 0.6870(11) 0.3754(11) -0.2301(9)
H23 H 0.65920 0.33350 -0.23050
C22 C 1.4488(10) 0.8517(9) -0.5538(7)
H24 H 1.40910 0.85050 -0.51920
C23 C 0.7845(9) 0.5276(9) -0.4638(7)
H25 H 0.79290 0.49980 -0.50210
C24 C 1.2659(10) 0.7789(9) -0.6269(7)
H26 H 1.25500 0.76260 -0.58530
C25 C 1.2540(8) 0.0989(9) -0.6795(6)
C26 C 1.3469(10) 0.7743(10) -0.6517(7)
C27 C 0.7972(10) 0.6052(9) -0.3894(7)
H27 H 0.81500 0.64260 -0.36630
C28 C 1.6249(9) -0.2668(9) -0.9115(8)
H28 H 1.59820 -0.27950 -0.94420
C29 C 0.7761(10) 0.4959(9) -0.2312(7)
H29 H 0.80680 0.53560 -0.23260
C30 C 1.3527(9) 0.0170(8) -0.7961(7)
H30 H 1.38660 0.01910 -0.76530
C31 C 1.3086(8) -0.0137(8) -0.8798(7)
H31 H 1.30650 -0.03700 -0.91850
C32 C 2.5376(8) -0.4307(9) -0.9282(7)
H32 H 2.57380 -0.47110 -0.90900
C33 C 2.4756(8) -0.3486(8) -0.9978(7)
H33 H 2.46270 -0.32450 -1.03590
C34 C 1.6818(8) -0.0899(8) -0.9788(7)
H34 H 1.68390 -0.05850 -0.94400
C35 C 2.6808(8) -0.4299(8) -1.0465(6)
C36 C 1.9940(8) -0.3008(7) -0.9637(6)
H35 H 2.03580 -0.30290 -0.99730
C37 C 1.6549(8) -0.2048(8) -0.8345(7)
H36 H 1.65260 -0.16630 -0.80340
C38 C 2.4726(9) -0.3759(8) -0.8998(6)
H37 H 2.45530 -0.37350 -0.85660
C39 C 1.2431(11) 0.0304(10) -0.6444(8)
H38 H 1.24110 -0.01750 -0.66880
C40 C 1.2710(12) 0.0149(12) -0.5873(9)
H39 H 1.26590 -0.03290 -0.56610
C41 C 1.2160(11) 0.8364(9) -0.7209(7)
H40 H 1.17220 0.85620 -0.74390
C42 C 1.2933(9) 0.1539(9) -0.6538(6)
H41 H 1.30270 0.19950 -0.67630
C43 C 1.3073(9) 0.0706(10) -0.5603(7)
H42 H 1.34710 0.04850 -0.53110
C44 C 1.2962(11) 0.8369(10) -0.7469(8)
H43 H 1.30590 0.85830 -0.78700
C45 C 1.3184(9) 0.1384(9) -0.5927(6)
C46 C 2.7517(9) -0.4755(8) -1.0217(7)
H44 H 2.74960 -0.52480 -1.00170
C47 C 1.2015(10) 0.8059(9) -0.6596(7)
C48 C 2.7608(7) -0.2415(7) -1.1017(6)
H45 H 2.81740 -0.23610 -1.11190
H46 H 2.73570 -0.23510 -1.14050
C49 C 1.6366(8) -0.1405(8) -1.0544(7)
H47 H 1.60150 -0.15110 -1.08190
C50 C 1.0190(9) 0.256(1) -0.2574(7)
H48 H 1.04100 0.20300 -0.27200
C51 C 2.8236(8) -0.4478(9) -1.0269(6)
H49 H 2.87010 -0.48040 -1.01250
C52 C 1.9701(8) -0.3703(8) -0.9441(6)
H50 H 1.99620 -0.41940 -0.96440
C53 C 1.2276(8) 0.1156(8) -0.7431(6)
H51 H 1.16960 0.11450 -0.74050
H52 H 1.23280 0.17020 -0.75540
C54 C 1.3627(11) 0.8051(10) -0.7132(8)
H53 H 1.41650 0.80430 -0.73110
C55 C 1.8682(8) -0.2948(8) -0.8666(7)
C56 C 2.6027(9) -0.4573(9) -1.0424(7)
H54 H 2.58200 -0.44920 -1.08300
H55 H 2.61350 -0.51520 -1.03350
C57 C 1.7925(8) -0.2910(8) -0.8163(6)
H56 H 1.79640 -0.34340 -0.79560
H57 H 1.79130 -0.25030 -0.78450
C58 C 2.7606(8) -0.3266(8) -1.0752(6)
C59 C 0.7973(10) 0.4265(9) -0.1960(6)
C60 C 1.1267(9) 0.6593(8) -0.6424(7)
H58 H 1.16960 0.64670 -0.67550
C61 C 2.8284(9) -0.3739(8) -1.0524(6)
H59 H 2.87700 -0.35570 -1.05440
C62 C 0.9547(10) 0.2787(9) -0.2124(8)
H60 H 0.92350 0.24510 -0.19070
C63 C 1.7456(8) -0.1449(8) -1.0084(6)
H61 H 1.79920 -0.15850 -0.99810
C64 C 1.0813(9) 0.6091(9) -0.6138(7)
H62 H 1.08700 0.55510 -0.62570
C65 C 1.4190(9) 0.7392(10) -0.6136(7)
H63 H 1.39750 0.72020 -0.57300
H64 H 1.45590 0.69300 -0.63620
C66 C 1.1145(9) 0.8109(8) -0.6304(7)
H65 H 1.10330 0.84570 -0.59320
H66 H 1.07760 0.83650 -0.66010
C67 C 2.6877(8) -0.3534(8) -1.0730(6)
H67 H 2.64270 -0.32050 -1.08920
C68 C 1.9080(8) -0.3692(8) -0.8949(7)
H68 H 1.89310 -0.41720 -0.88090
C69 C 1.6971(9) -0.3096(10) -0.8948(8)
H69 H 1.72830 -0.35810 -0.91350
C70 C 1.2460(8) 0.0375(8) -0.8463(6)
H70 H 1.19300 0.05600 -0.85720
N1 N 2.1923(6) -0.1769(7) -0.9082(5)
N2 N 2.0609(6) -0.1478(6) -0.9229(5)
N3 N 1.2400(9) 0.2918(9) -0.4274(7)
N4 N 1.0474(8) 0.3234(9) -0.2786(6)
N5 N 0.7352(8) 0.5705(8) -0.3685(6)
N6 N 1.4986(8) 0.9043(7) -0.5607(6)
N7 N 1.3279(7) 0.2394(8) -0.5099(6)
N8 N 1.6141(7) -0.0872(7) -1.0073(5)
N9 N 2.4345(7) -0.3235(7) -0.9435(5)
N10 N 2.5393(7) -0.4137(7) -0.9934(6)
N11 N 1.4645(8) 0.8011(8) -0.6038(6)
N12 N 1.3764(6) -0.0266(7) -0.8482(5)
N13 N 1.0960(8) 0.7331(7) -0.6123(6)
N14 N 1.7166(6) -0.2700(7) -0.8462(5)
N15 N 1.5980(7) -0.2005(6) -0.8712(6)
N16 N 1.0262(8) 0.6470(8) -0.5653(6)
N17 N 1.7162(7) -0.1772(7) -1.0573(5)
N18 N 0.8302(7) 0.5803(7) -0.4465(5)
N19 N 0.9439(8) 0.3603(8) -0.2046(6)
N20 N 1.2747(6) 0.0578(6) -0.7926(5)
Ag1A Ag 2.06763(7) -0.61087(7) -1.49588(5)
Ag2A Ag 1.51048(6) 0.10967(6) -1.13158(5)
Ag3* Ag 1.50000 -1.00000 -1.50000
Ag4* Ag 1.31775(6) -0.24112(6) -0.92706(5)
Ag4A Ag 0.68225(6) 0.24112(6) -1.07294(5)
Ag5* Ag 2.50000 0.00000 -1.00000
Ag6A Ag 1.86256(9) -0.31643(10) -1.64183(7)
C1A C 0.8487(8) 0.1138(8) -1.1308(7)
H1A H 0.82550 0.08850 -1.15970
C2A C 0.8633(7) 0.1956(7) -1.0606(6)
H2A H 0.85190 0.23720 -1.03050
C3A C 0.9299(8) 0.0935(8) -1.1204(6)
H3A H 0.97070 0.05090 -1.13930
C4A C 1.0131(8) 0.1500(8) -1.0476(6)
H4A H 1.00020 0.14840 -1.00200
H5A H 1.05630 0.10230 -1.06080
C5A C 1.0436(7) 0.2265(7) -1.0660(6)
C6A C 1.1072(8) 0.2235(7) -1.1142(6)
H6A H 1.13360 0.17400 -1.13390
C7A C 1.4513(9) -0.8848(10) -1.3808(7)
H7A H 1.41090 -0.91140 -1.36320
C8A C 1.4721(11) -0.8201(11) -1.3544(8)
H8A H 1.44850 -0.79420 -1.31620
C9A C 2.2743(10) -0.5235(11) -1.5846(8)
H9A H 2.31450 -0.49330 -1.58530
C10A C 1.635(1) -0.1987(10) -1.4309(8)
H10A H 1.57930 -0.16930 -1.43560
H11A H 1.63100 -0.23980 -1.39880
C11A C 2.3120(9) -0.5817(10) -1.6957(7)
H12A H 2.37070 -0.59450 -1.69230
H13A H 2.29960 -0.62740 -1.71640
C12A C 2.1272(11) -0.4143(11) -1.8345(7)
H14A H 2.13630 -0.39000 -1.87570
H15A H 2.11420 -0.46670 -1.84060
C13A C 1.6868(11) -0.3152(10) -1.5744(8)
H16A H 1.67590 -0.34850 -1.60490
C14A C 1.7466(10) -0.2467(10) -1.5219(7)
H17A H 1.78600 -0.22170 -1.50910
C15A C 1.6337(11) -0.2814(10) -1.5243(7)
H18A H 1.57930 -0.28630 -1.51480
C16A C 1.9627(11) -0.7248(10) -1.4328(7)
H19A H 1.99280 -0.76660 -1.45990
C17A C 2.3358(11) -0.4440(11) -1.7360(9)
H20A H 2.38040 -0.45000 -1.71310
C18A C 2.2915(9) -0.5063(9) -1.7354(7)
C19A C 2.2484(11) -0.3684(10) -1.8051(8)
H21A H 2.23540 -0.32280 -1.83030
C20A C 1.9995(12) -0.3850(11) -1.7548(7)
H22A H 1.99400 -0.43870 -1.75060
C21A C 2.3130(11) -0.3754(11) -1.7699(9)
H23A H 2.34080 -0.33350 -1.76950
C22A C 1.5512(10) -0.8517(9) -1.4462(7)
H24A H 1.59090 -0.85050 -1.48080
C23A C 2.2155(9) -0.5276(9) -1.5362(7)
H25A H 2.20710 -0.49980 -1.49790
C24A C 1.7341(10) -0.7789(9) -1.3731(7)
H26A H 1.74500 -0.76260 -1.41470
C25A C 1.7460(8) -0.0989(9) -1.3205(6)
C26A C 1.6531(10) -0.7743(10) -1.3483(7)
C27A C 2.2028(10) -0.6052(9) -1.6106(7)
H27A H 2.18500 -0.64260 -1.63370
C28A C 1.3751(9) 0.2668(9) -1.0885(8)
H28A H 1.40180 0.27950 -1.05580
C29A C 2.2239(10) -0.4959(9) -1.7688(7)
H29A H 2.19320 -0.53560 -1.76740
C30A C 1.6473(9) -0.0170(8) -1.2039(7)
H30A H 1.61340 -0.01910 -1.23470
C31A C 1.6914(8) 0.0137(8) -1.1202(7)
H31A H 1.69350 0.03700 -1.08150
C32* C 1.5376(8) -0.4307(9) -0.9282(7)
H32* H 1.57380 -0.47110 -0.90900
C33* C 1.4756(8) -0.3486(8) -0.9978(7)
H33* H 1.46270 -0.32450 -1.03590
C34* C 2.6818(8) -0.0899(8) -0.9788(7)
H34* H 2.68390 -0.05850 -0.94400
C35* C 1.6808(8) -0.4299(8) -1.0465(6)
C36A C 1.0060(8) 0.3008(7) -1.0363(6)
H35A H 0.96420 0.30290 -1.00270
C37A C 1.3451(8) 0.2048(8) -1.1655(7)
H36A H 1.34740 0.16630 -1.19660
C38* C 1.4726(9) -0.3759(8) -0.8998(6)
H37* H 1.45530 -0.37350 -0.85660
C39A C 1.7569(11) -0.0304(10) -1.3556(8)
H38A H 1.75890 0.01750 -1.33120
C40A C 1.7290(12) -0.0149(12) -1.4127(9)
H39A H 1.73410 0.03290 -1.43390
C41A C 1.7840(11) -0.8364(9) -1.2791(7)
H40A H 1.82780 -0.85620 -1.25610
C42A C 1.7067(9) -0.1539(9) -1.3462(6)
H41A H 1.69730 -0.19950 -1.32370
C43A C 1.6927(9) -0.0706(10) -1.4397(7)
H42A H 1.65290 -0.04850 -1.46890
C44A C 1.7038(11) -0.8369(10) -1.2531(8)
H43A H 1.69410 -0.85830 -1.21300
C45A C 1.6816(9) -0.1384(9) -1.4073(6)
C46* C 1.7517(9) -0.4755(8) -1.0217(7)
H44* H 1.74960 -0.52480 -1.00170
C47A C 1.7985(10) -0.8059(9) -1.3404(7)
C48* C 1.7608(7) -0.2415(7) -1.1017(6)
H45* H 1.81740 -0.23610 -1.11190
H46* H 1.73570 -0.23510 -1.14050
C49* C 2.6366(8) -0.1405(8) -1.0544(7)
H47* H 2.60150 -0.15110 -1.08190
C50A C 1.9810(9) -0.256(1) -1.7426(7)
H48A H 1.95900 -0.20300 -1.72800
C51* C 1.8236(8) -0.4478(9) -1.0269(6)
H49* H 1.87010 -0.48040 -1.01250
C52A C 1.0299(8) 0.3703(8) -1.0559(6)
H50A H 1.00380 0.41940 -1.03560
C53A C 1.7724(8) -0.1156(8) -1.2569(6)
H51A H 1.83040 -0.11450 -1.25950
H52A H 1.76720 -0.17020 -1.24460
C54A C 1.6373(11) -0.8051(10) -1.2868(8)
H53A H 1.58350 -0.80430 -1.26890
C55A C 1.1318(8) 0.2948(8) -1.1334(7)
C56* C 1.6027(9) -0.4573(9) -1.0424(7)
H54* H 1.58200 -0.44920 -1.08300
H55* H 1.61350 -0.51520 -1.03350
C57A C 1.2075(8) 0.2910(8) -1.1837(6)
H56A H 1.20360 0.34340 -1.20440
H57A H 1.20870 0.25030 -1.21550
C58* C 1.7606(8) -0.3266(8) -1.0752(6)
C59A C 2.2027(10) -0.4265(9) -1.8040(6)
C60A C 1.8733(9) -0.6593(8) -1.3576(7)
H58A H 1.83040 -0.64670 -1.32450
C61* C 1.8284(9) -0.3739(8) -1.0524(6)
H59* H 1.87700 -0.35570 -1.05440
C62A C 2.0453(10) -0.2787(9) -1.7876(8)
H60A H 2.07650 -0.24510 -1.80930
C63* C 2.7456(8) -0.1449(8) -1.0084(6)
H61* H 2.79920 -0.15850 -0.99810
C64A C 1.9187(9) -0.6091(9) -1.3862(7)
H62A H 1.91300 -0.55510 -1.37430
C65A C 1.5810(9) -0.7392(10) -1.3864(7)
H63A H 1.60250 -0.72020 -1.42700
H64A H 1.54410 -0.69300 -1.36380
C66A C 1.8855(9) -0.8109(8) -1.3696(7)
H65A H 1.89670 -0.84570 -1.40680
H66A H 1.92240 -0.83650 -1.33990
C67* C 1.6877(8) -0.3534(8) -1.0730(6)
H67* H 1.64270 -0.32050 -1.08920
C68A C 1.0920(8) 0.3692(8) -1.1051(7)
H68A H 1.10690 0.41720 -1.11910
C69A C 1.3029(9) 0.3096(10) -1.1052(8)
H69A H 1.27170 0.35810 -1.08650
C70A C 1.7540(8) -0.0375(8) -1.1537(6)
H70A H 1.80700 -0.05600 -1.14280
N1A N 0.8077(6) 0.1769(7) -1.0918(5)
N2A N 0.9391(6) 0.1478(6) -1.0771(5)
N3A N 1.7600(9) -0.2918(9) -1.5726(7)
N4A N 1.9526(8) -0.3234(9) -1.7214(6)
N5A N 2.2648(8) -0.5705(8) -1.6315(6)
N6A N 1.5014(8) 1.0957(7) -0.4393(6)
N6A* N 1.5014(8) -0.9043(7) -1.4393(6)
N7A N 1.6721(7) -0.2394(8) -1.4901(6)
N8A N 1.3859(7) 0.0872(7) -0.9927(5)
N8* N 2.6141(7) -0.0872(7) -1.0073(5)
N9* N 1.4345(7) -0.3235(7) -0.9435(5)
N9A N 0.5655(7) 0.3235(7) -1.0565(5)
N10* N 1.5393(7) -0.4137(7) -0.9934(6)
N11A N 1.5355(8) -0.8011(8) -1.3962(6)
N12A N 1.6236(6) 0.0266(7) -1.1518(5)
N13A N 1.9040(8) -0.7331(7) -1.3877(6)
N14A N 1.2834(6) 0.2700(7) -1.1538(5)
N15A N 1.4020(7) 0.2005(6) -1.1288(6)
N16A N 1.9738(8) -0.6470(8) -1.4347(6)
N17* N 2.7162(7) -0.1772(7) -1.0573(5)
N18A N 2.1698(7) -0.5803(7) -1.5535(5)
N19A N 2.0561(8) -0.3603(8) -1.7954(6)
N20A N 1.7253(6) -0.0578(6) -1.2074(5)
#END
