
#######################################################################
#
#                 Cambridge Crystallographic Data Centre
#                                CCDC
#
#######################################################################
#
# If this CIF has been generated from an entry in the Cambridge
# Structural Database, then it will include bibliographic, chemical,
# crystal, experimental, refinement or atomic coordinate data resulting
# from the CCDC's data processing and validation procedures.
#
#######################################################################

data_CSD_CIF_ZECXOW
_audit_creation_date 2013-02-01
_audit_creation_method CSD-ConQuest-V1
_database_code_CSD ZECXOW
_database_code_depnum_ccdc_archive 'CCDC 885333'
_chemical_formula_sum 'C112 H164.2 Ag7 N32 Na2 O147.6 P4 W36'
_chemical_formula_moiety
;
(Na1 1+)2n,n(C112 H121 Ag7 N32 O126 P4 W36 2-),21.6n(H2 O1)
;
_journal_coden_Cambridge 1350
_journal_volume 14
_journal_year 2012
_journal_page_first 6452
_journal_name_full 'CrystEngComm '
loop_
_publ_author_name
"Min Zhu"
"Sheng-Qun Su"
"Xue-Zhi Song"
"Zhao-Min Hao"
"Shu-Yan Song"
"Hong-Jie Zhang"
_chemical_name_systematic
;
catena-[bis(Sodium) 
tetrakis(\m~9~-phosphato)-bis(\m~3~-oxo)-tetrakis(\m~2~-1,1'-(benzene-1,2-diyl
dimethanediyl)bis(1H-imidazole))-(\m~2~-hydroxo)-triheptacontakis(\m~2~-oxo)-d
iaqua-tetrakis(1,1'-(benzene-1,2-diyldimethanediyl)bis(1H-imidazole))-dotriaco
nta-oxo-hepta-silver(i)-hexatriaconta-tungsten hydrate]
;
_cell_volume   5233.457
_exptl_crystal_colour 'yellow'
_exptl_special_details
;
An additional hydride ligand, required for charge-balance, was not located 
from the diffraction data
;
_exptl_crystal_description 'block'
_diffrn_ambient_temperature 187
_refine_special_details
;
Disordered solvent water molecules were not modelled and the disordered 
density was taken into account using the SQUEEZE/PLATON procedure. The unit 
cell was found to contain a total void space of 383 A$3! holding 226 
electrons. The solvent stoichiometry was established via elemental and TG 
analysis.
;
#These two values have been output from a single CSD field.
_refine_ls_R_factor_gt 0.0555
_refine_ls_wR_factor_gt 0.0555
_symmetry_cell_setting triclinic
_symmetry_space_group_name_H-M 'P -1'
_symmetry_Int_Tables_number 2
loop_
_symmetry_equiv_pos_site_id
_symmetry_equiv_pos_as_xyz
1 x,y,z
2 -x,-y,-z
_cell_length_a 15.0870(8)
_cell_length_b 15.3430(8)
_cell_length_c 26.0420(14)
_cell_angle_alpha 95.941(1)
_cell_angle_beta 100.639(1)
_cell_angle_gamma 115.479(1)
_cell_formula_units_Z 1
loop_
_atom_type_symbol
_atom_type_radius_bond
C 0.68
H 0.23
Ag 1.55
N 0.68
Na 0.66
O 0.68
P 1.05
W 1.40
loop_
_atom_site_label
_atom_site_type_symbol
_atom_site_fract_x
_atom_site_fract_y
_atom_site_fract_z
Na1 Na 0.8592(6) 0.3339(7) -0.9387(3)
W1 W 0.23823(6) -0.02246(6) -0.86484(3)
W2 W 0.42753(6) 0.33959(6) -0.87568(3)
W3 W 0.17313(6) 0.16101(6) -0.86101(3)
W4 W 0.13393(6) 0.01611(6) -0.65048(3)
W5 W 0.79854(6) 0.48181(6) -0.68953(3)
W6 W 0.62423(5) 0.12076(6) -0.75507(3)
W7 W 0.40641(6) 0.07822(6) -0.62366(3)
W8 W 0.68702(6) 0.52608(6) -0.80187(3)
W9 W 0.21374(6) 0.31107(6) -0.73096(3)
W10 W 0.58321(6) 0.45762(6) -0.63382(3)
W11 W 0.36962(5) -0.05992(5) -0.74200(3)
W12 W 0.46563(6) 0.49044(6) -0.74729(3)
W13 W 0.33144(6) 0.27619(6) -0.61833(3)
W14 W 0.49264(6) 0.15552(6) -0.87891(3)
W15 W 0.75515(6) 0.34333(6) -0.80957(3)
W16 W 0.02180(6) 0.04886(6) -0.76660(3)
W17 W 0.65929(6) 0.25960(6) -0.63774(3)
W18 W 0.09438(6) -0.13106(6) -0.76792(3)
Ag1 Ag 0.98701(16) 0.29802(18) -0.81793(10)
Ag2 Ag -0.0348(2) -0.2484(2) -0.65513(15)
Ag3 Ag 0.93518(12) 0.18269(12) -0.98837(7)
Ag4 Ag 1.00000 0.00000 -1.00000
P1 P 0.5491(3) 0.3088(3) -0.75545(18)
P2 P 0.2819(3) 0.1193(3) -0.73955(18)
O1 O 0.9044(13) 0.2166(14) -0.7596(9)
O2 O 0.3742(9) -0.1691(9) -0.7531(5)
O3 O 0.7552(9) 0.4586(9) -0.8305(5)
O4 O 0.3493(10) 0.4123(9) -0.7271(5)
O5 O 0.0687(9) 0.0797(9) -0.8266(5)
O6 O 0.0841(10) -0.1097(10) -0.6956(6)
O7 O 0.7039(9) 0.5063(9) -0.6583(5)
O8 O 0.7895(10) 0.5685(10) -0.7373(6)
O9 O 0.6312(9) 0.2616(9) -0.8594(5)
O10 O 0.4772(9) 0.2600(9) -0.8112(5)
O11 O 0.2611(9) 0.0161(9) -0.6322(5)
O12 O 0.0984(9) 0.1859(10) -0.7358(5)
O13 O 0.6766(9) 0.0421(10) -0.7684(6)
O14 O 0.4506(9) 0.3809(9) -0.6270(5)
O15 O 0.5116(9) 0.3692(9) -0.7232(5)
O16 O 0.5937(9) 0.5397(9) -0.7668(5)
O17 O 0.3288(9) -0.0404(9) -0.8105(5)
O18 O 0.6880(9) 0.1735(9) -0.6808(5)
O19 O 0.2955(10) 0.2340(9) -0.8773(5)
O20 O 0.3577(8) 0.0721(8) -0.8807(5)
O21 O 0.1503(10) 0.3788(10) -0.7379(6)
O22 O -0.0066(9) -0.0851(9) -0.7858(5)
O23 O 0.2254(9) -0.1197(8) -0.7451(5)
O24 O 0.7576(10) 0.3658(10) -0.6620(5)
O25 O 0.5384(10) 0.5349(9) -0.6738(5)
O26 O 0.6568(9) 0.3860(8) -0.7612(5)
O27 O 0.0876(10) -0.0157(10) -0.5965(6)
O28 O 0.5375(9) 0.1037(9) -0.8225(5)
O29 O 0.0248(9) 0.0284(9) -0.6935(6)
O30 O 0.6335(10) 0.5313(9) -0.5725(5)
O31 O 0.4013(9) 0.2024(9) -0.6090(5)
O32 O 0.5675(9) 0.2335(8) -0.7254(5)
O33 O 0.2096(9) 0.1548(9) -0.6278(5)
O34 O 0.4105(9) 0.4083(9) -0.8167(5)
O35 O 0.2468(9) 0.3268(9) -0.6556(5)
O36 O 0.1753(9) 0.0448(9) -0.7334(5)
O37 O 0.4529(9) 0.2429(9) -0.9135(5)
O38 O 0.3964(8) -0.0361(9) -0.6662(5)
O39 O 0.7372(10) 0.2734(11) -0.5772(6)
O40 O 0.8448(8) 0.4274(9) -0.7418(5)
O41 O 0.5035(10) 0.0919(10) -0.9333(6)
O42 O 0.5385(9) 0.1540(9) -0.6332(5)
O43 O 0.1620(9) 0.0383(9) -0.8967(5)
O44 O -0.0996(9) 0.0378(9) -0.7841(6)
O45 O 0.3392(9) 0.3224(9) -0.5542(5)
O46 O 0.7244(9) 0.2356(9) -0.7721(5)
O47 O 0.5052(9) 0.0264(9) -0.7381(5)
O48 O 0.4408(10) 0.5867(9) -0.7561(6)
O49 O 0.2723(8) 0.1147(9) -0.7989(5)
O50 O 0.1354(9) -0.0931(9) -0.8317(5)
O51 O 0.2051(9) 0.2642(9) -0.8030(5)
O52 O 0.6091(9) 0.3498(9) -0.6213(5)
O53 O 0.5658(8) 0.4320(8) -0.8555(5)
O54 O 0.0925(9) 0.1793(10) -0.9088(5)
O55 O 0.7264(10) 0.6262(10) -0.8297(6)
O56 O 0.4428(10) 0.0621(10) -0.5607(6)
O57 O 0.3580(9) 0.0859(9) -0.7153(5)
O58 O 0.9107(10) 0.5578(11) -0.6448(6)
O59 O 0.3861(9) 0.3838(9) -0.9276(5)
O60 O 0.0234(11) -0.2539(10) -0.7898(6)
O61 O 0.8401(10) 0.3333(10) -0.8416(6)
O62 O 0.2054(10) -0.1182(9) -0.9166(5)
O63 O 0.3040(8) 0.2216(9) -0.7105(5)
N1 N -0.1997(18) -0.2078(18) -0.5352(10)
N2 N -0.023(2) -0.131(2) -0.5229(12)
N3 N 0.0671(14) -0.4719(15) -0.6999(9)
N4 N 1.0622(13) 0.3896(13) -0.8687(8)
N5 N 0.2248(11) -0.3750(12) -0.6901(7)
N6 N 0.1033(14) -0.2463(14) -0.6091(8)
N7 N 0.6864(12) -0.0049(12) -0.9323(7)
N8 N 0.2610(12) -0.2151(12) -0.5777(7)
N9 N 0.8233(13) 0.0953(12) -0.9501(7)
N10 N 1.0402(14) 0.2791(13) -1.0238(7)
N11 N 1.1822(13) 0.3966(12) -1.0319(8)
N12 N 1.1114(11) 0.0953(11) -1.0339(7)
N13 N 0.7396(12) -0.1889(13) -0.9530(7)
N14 N 1.1818(12) 0.4910(12) -0.9004(7)
C1 C -0.121(2) -0.142(3) -0.5490(14)
H1 H -0.12840 -0.10530 -0.57420
C2 C -0.388(2) -0.0626(19) -0.6209(13)
H2 H -0.41990 -0.05780 -0.65380
C3 C -0.164(3) -0.259(2) -0.5048(14)
H3 H -0.20280 -0.31600 -0.49340
C4 C -0.066(2) -0.213(2) -0.4954(14)
H4 H -0.02490 -0.23070 -0.47240
C5 C -0.4002(19) -0.223(2) -0.6622(11)
H5 H -0.43300 -0.28780 -0.65440
H6 H -0.45000 -0.21510 -0.68830
C6 C -0.296(2) -0.081(2) -0.5205(13)
H7 H -0.26410 -0.08540 -0.48740
C7 C -0.312(2) -0.004(2) -0.5246(13)
H8 H -0.29550 0.04220 -0.49360
C8 C -0.303(2) -0.236(2) -0.5538(13)
H9 H -0.33760 -0.26790 -0.52810
H10 H -0.32930 -0.28450 -0.58700
C9 C 0.848(2) 0.0854(18) -0.8995(10)
H11 H 0.91290 0.11540 -0.87640
C10 C -0.350(2) 0.012(2) -0.5698(13)
H12 H -0.35410 0.07080 -0.57040
C11 C 0.5196(18) -0.212(2) -0.8281(10)
H13 H 0.49880 -0.20430 -0.79720
C12 C 0.5404(18) -0.2950(19) -0.841(1)
H14 H 0.52850 -0.34380 -0.82090
C13 C 0.1725(17) -0.3562(16) -0.7312(10)
H15 H 0.19850 -0.30930 -0.75160
C14 C 0.5304(14) -0.1444(16) -0.8616(9)
H16 H 0.51350 -0.09380 -0.85400
C15 C 0.0751(17) -0.4191(16) -0.7366(10)
H17 H 0.02090 -0.42440 -0.76280
C16 C 0.2037(18) -0.2678(18) -0.5478(10)
H18 H 0.22700 -0.28870 -0.51830
C17 C 0.6271(14) -0.2494(18) -0.964(1)
H19 H 0.60960 -0.31890 -0.97230
H20 H 0.59410 -0.23400 -0.99480
C18 C 0.7576(16) 0.0211(17) -0.888(1)
H21 H 0.74980 0.00120 -0.85590
C19 C 0.1580(17) -0.4438(16) -0.6714(10)
H22 H 0.17420 -0.46850 -0.64190
C20 C 0.7280(17) 0.0403(15) -0.9701(9)
H23 H 0.69290 0.03250 -1.00500
C21 C 1.1606(17) 0.4283(16) -0.867(1)
H24 H 1.20750 0.41390 -0.84600
C22 C 0.4233(18) -0.4331(18) -0.5604(11)
H25 H 0.43350 -0.48830 -0.55770
C23 C 0.4404(16) -0.3670(17) -0.5136(9)
H26 H 0.45900 -0.37820 -0.47980
C24 C 0.3908(14) -0.4170(16) -0.6117(10)
H27 H 0.38260 -0.46040 -0.64200
C25 C -0.324(2) -0.152(2) -0.5629(14)
C26 C 1.0186(16) 0.3131(17) -1.0707(9)
H28 H 0.95550 0.29010 -1.09450
C27 C 1.0220(16) 0.4248(16) -0.9054(9)
H29 H 0.95320 0.40750 -0.91590
C28 C 0.3392(14) -0.3247(16) -0.6715(9)
H30 H 0.36650 -0.35300 -0.69550
H31 H 0.36540 -0.25500 -0.67210
C29 C 0.5779(15) -0.0794(15) -0.9404(9)
H32 H 0.53920 -0.04570 -0.93200
H33 H 0.55000 -0.11260 -0.97770
C30 C 1.2921(15) 0.6979(14) -0.9372(9)
H34 H 1.28660 0.71870 -0.90360
C31 C 0.5895(15) -0.2300(16) -0.9172(8)
C32 C -0.365(2) -0.145(2) -0.6107(13)
C33 C 0.4278(16) -0.2839(17) -0.5208(9)
H35 H 0.44360 -0.23590 -0.49100
C34 C 1.2998(15) 0.7597(15) -0.9729(9)
H36 H 1.32410 0.83010 -0.95910
C35 C 0.3684(16) -0.1818(14) -0.5716(10)
H37 H 0.40640 -0.13340 -0.53850
H38 H 0.38870 -0.15060 -0.60090
C36 C 0.8085(14) -0.1822(15) -0.9092(8)
H39 H 0.79670 -0.21110 -0.87980
C37 C 0.3708(14) -0.3369(14) -0.6176(9)
C38 C 0.1107(16) -0.2852(17) -0.5662(9)
H40 H 0.05710 -0.31970 -0.55170
C39 C 1.2893(16) 0.4762(15) -1.0168(9)
H41 H 1.32860 0.46210 -0.98800
H42 H 1.31840 0.47680 -1.04720
C40 C 1.0930(15) 0.4885(16) -0.9256(10)
H43 H 1.08370 0.52350 -0.95140
C41 C 1.1106(17) 0.3878(15) -1.0743(9)
H44 H 1.12040 0.42450 -1.10080
C42 C 0.5787(14) -0.2964(16) -0.8849(9)
H45 H 0.59820 -0.34500 -0.89300
C43 C 0.5673(14) -0.1534(14) -0.9070(8)
C44 C 0.1991(16) -0.2040(15) -0.6159(9)
H46 H 0.21780 -0.17210 -0.64350
C45 C 0.3927(14) -0.2698(15) -0.5709(10)
C46 C 1.3069(15) 0.6388(15) -1.0372(9)
H47 H 1.33690 0.62910 -1.06630
C47 C 1.3105(15) 0.7303(14) -1.0231(9)
H48 H 1.35520 0.78320 -1.03820
C48 C 1.2108(15) 0.1367(13) -1.0120(9)
H49 H 1.24170 0.13150 -0.97890
C49 C 1.2906(14) 0.5502(14) -0.9045(9)
H50 H 1.31860 0.50580 -0.91280
H51 H 1.33230 0.59440 -0.87050
C50 C 1.1392(17) 0.3316(13) -1.0032(8)
H52 H 1.17450 0.32390 -0.97220
C51 C 1.0984(14) 0.1212(14) -1.0812(8)
H53 H 1.03550 0.10110 -1.10470
C52 C 1.2919(13) 0.6087(13) -0.9472(8)
C53 C 1.2971(13) 0.5765(13) -0.9994(8)
N15 N -0.3163(16) -0.2149(18) -0.6853(10)
C54 C -0.2597(19) -0.2616(17) -0.6667(10)
H54 H -0.27240 -0.30220 -0.64200
N16 N -0.1807(17) -0.2372(19) -0.6914(11)
C55 C -0.1886(18) -0.1754(19) -0.7253(11)
H55 H -0.14530 -0.14800 -0.74680
C56 C -0.272(2) -0.1616(19) -0.7215(11)
H56 H -0.29510 -0.12340 -0.74000
W1A W 1.76177(6) 0.02246(6) -1.13516(3)
W2A W 1.57247(6) -0.33959(6) -1.12432(3)
W3A W 1.82687(6) -0.16101(6) -1.13899(3)
W4A W 1.86607(6) -0.01611(6) -1.34952(3)
W5A W 1.20146(6) -0.48181(6) -1.31047(3)
W6A W 1.37577(5) -0.12076(6) -1.24493(3)
W7A W 1.59359(6) -0.07822(6) -1.37634(3)
W8A W 1.31298(6) -0.52608(6) -1.19813(3)
W9A W 1.78626(6) -0.31107(6) -1.26904(3)
W10A W 1.41679(6) -0.45762(6) -1.36618(3)
W11A W 1.63038(5) 0.05992(5) -1.25800(3)
W12A W 1.53437(6) -0.49044(6) -1.25271(3)
W13A W 1.66856(6) -0.27619(6) -1.38167(3)
W14A W 1.50736(6) -0.15552(6) -1.12109(3)
W15A W 1.24485(6) -0.34333(6) -1.19043(3)
W16A W 1.97820(6) -0.04886(6) -1.23340(3)
W17A W 1.34071(6) -0.25960(6) -1.36226(3)
W18A W 1.90562(6) 0.13106(6) -1.23208(3)
Ag1A Ag 1.01299(16) -0.29802(18) -1.18207(10)
Ag1* Ag -0.01299(16) 0.29802(18) -0.81793(10)
Ag1A* Ag 2.01299(16) -0.29802(18) -1.18207(10)
Ag2A Ag 2.0348(2) 0.2484(2) -1.34487(15)
Ag3A Ag 1.06482(12) -0.18269(12) -1.01163(7)
P1A P 1.4509(3) -0.3088(3) -1.24455(18)
P2A P 1.7181(3) -0.1193(3) -1.26045(18)
O1A O 1.0956(13) -0.2166(14) -1.2404(9)
O2A O 1.6258(9) 0.1691(9) -1.2469(5)
O3A O 1.2448(9) -0.4586(9) -1.1695(5)
O4A O 1.6507(10) -0.4123(9) -1.2729(5)
O5A O 1.9313(9) -0.0797(9) -1.1734(5)
O6A O 1.9159(10) 0.1097(10) -1.3044(6)
O7A O 1.2961(9) -0.5063(9) -1.3417(5)
O8A O 1.2105(10) -0.5685(10) -1.2627(6)
O9A O 1.3688(9) -0.2616(9) -1.1406(5)
O10A O 1.5228(9) -0.2600(9) -1.1888(5)
O11A O 1.7389(9) -0.0161(9) -1.3678(5)
O12A O 1.9016(9) -0.1859(10) -1.2642(5)
O13A O 1.3234(9) -0.0421(10) -1.2316(6)
O14A O 1.5494(9) -0.3809(9) -1.3730(5)
O15A O 1.4884(9) -0.3692(9) -1.2768(5)
O16A O 1.4063(9) -0.5397(9) -1.2332(5)
O17A O 1.6712(9) 0.0404(9) -1.1895(5)
O18A O 1.3120(9) -0.1735(9) -1.3192(5)
O19A O 1.7045(10) -0.2340(9) -1.1227(5)
O20A O 1.6423(8) -0.0721(8) -1.1193(5)
O21A O 0.8497(10) -0.3788(10) -1.2621(6)
O21* O 1.1503(10) 0.3788(10) -0.7379(6)
O21A* O 1.8497(10) -0.3788(10) -1.2621(6)
O22A O 2.0066(9) 0.0851(9) -1.2142(5)
O23A O 1.7746(9) 0.1197(8) -1.2549(5)
O24A O 1.2424(10) -0.3658(10) -1.3380(5)
O25A O 1.4616(10) -0.5349(9) -1.3262(5)
O26A O 1.3432(9) -0.3860(8) -1.2388(5)
O27A O 1.9124(10) 0.0157(10) -1.4035(6)
O28A O 1.4625(9) -0.1037(9) -1.1775(5)
O29A O 1.9752(9) -0.0284(9) -1.3065(6)
O30A O 1.3665(10) -0.5313(9) -1.4275(5)
O31A O 1.5987(9) -0.2024(9) -1.3910(5)
O32A O 1.4325(9) -0.2335(8) -1.2746(5)
O33A O 1.7904(9) -0.1548(9) -1.3722(5)
O34A O 1.5895(9) -0.4083(9) -1.1833(5)
O35A O 1.7532(9) -0.3268(9) -1.3444(5)
O36A O 1.8247(9) -0.0448(9) -1.2666(5)
O37A O 1.5471(9) -0.2429(9) -1.0865(5)
O38A O 1.6036(8) 0.0361(9) -1.3338(5)
O39A O 1.2628(10) -0.2734(11) -1.4228(6)
O40A O 1.1552(8) -0.4274(9) -1.2582(5)
O41A O 1.4965(10) -0.0919(10) -1.0667(6)
O42A O 1.4615(9) -0.1540(9) -1.3668(5)
O43A O 1.8380(9) -0.0383(9) -1.1033(5)
O44A O 2.0996(9) -0.0378(9) -1.2159(6)
O45A O 1.6608(9) -0.3224(9) -1.4458(5)
O46A O 1.2756(9) -0.2356(9) -1.2279(5)
O47A O 1.4948(9) -0.0264(9) -1.2619(5)
O48A O 1.5592(10) -0.5867(9) -1.2439(6)
O49A O 1.7277(8) -0.1147(9) -1.2011(5)
O50A O 1.8646(9) 0.0931(9) -1.1683(5)
O51A O 1.7949(9) -0.2642(9) -1.1970(5)
O52A O 1.3909(9) -0.3498(9) -1.3787(5)
O53A O 1.4342(8) -0.4320(8) -1.1445(5)
O54A O 1.9075(9) -0.1793(10) -1.0912(5)
O55A O 1.2736(10) -0.6262(10) -1.1703(6)
O56A O 1.5572(10) -0.0621(10) -1.4393(6)
O57A O 1.6420(9) -0.0859(9) -1.2847(5)
O58A O 1.0893(10) -0.5578(11) -1.3552(6)
O59A O 1.6139(9) -0.3838(9) -1.0724(5)
O60A O 1.9766(11) 0.2539(10) -1.2102(6)
O61A O 1.1599(10) -0.3333(10) -1.1584(6)
O62A O 1.7946(10) 0.1182(9) -1.0834(5)
O63A O 1.6960(8) -0.2216(9) -1.2895(5)
N1A N 2.1997(18) 0.2078(18) -1.4648(10)
N2A N 2.023(2) 0.131(2) -1.4771(12)
N3A N 1.9329(14) 0.4719(15) -1.3001(9)
N4A N 0.9378(13) -0.3896(13) -1.1313(8)
N5A N 1.7752(11) 0.3750(12) -1.3099(7)
N6A N 1.8967(14) 0.2463(14) -1.3909(8)
N7A N 1.3136(12) 0.0049(12) -1.0677(7)
N8A N 1.7390(12) 0.2151(12) -1.4223(7)
N9A N 1.1767(13) -0.0953(12) -1.0499(7)
N10A N 0.9598(14) -0.2791(13) -0.9762(7)
N11A N 0.8178(13) -0.3966(12) -0.9681(8)
N12A N 0.8886(11) -0.0953(11) -0.9661(7)
N13A N 1.2604(12) 0.1889(13) -1.0470(7)
N14A N 0.8182(12) -0.4910(12) -1.0996(7)
C1A C 2.121(2) 0.142(3) -1.4510(14)
H1A H 2.12840 0.10530 -1.42580
C2A C 2.388(2) 0.0626(19) -1.3791(13)
H2A H 2.41990 0.05780 -1.34620
C3A C 2.164(3) 0.259(2) -1.4952(14)
H3A H 2.20280 0.31600 -1.50660
C4A C 2.066(2) 0.213(2) -1.5046(14)
H4A H 2.02490 0.23070 -1.52760
C5A C 2.4002(19) 0.223(2) -1.3378(11)
H5A H 2.43300 0.28780 -1.34560
H6A H 2.45000 0.21510 -1.31170
C6A C 2.296(2) 0.081(2) -1.4795(13)
H7A H 2.26410 0.08540 -1.51260
C7A C 2.312(2) 0.004(2) -1.4754(13)
H8A H 2.29550 -0.04220 -1.50640
C8A C 2.303(2) 0.236(2) -1.4462(13)
H9A H 2.33760 0.26790 -1.47190
H10A H 2.32930 0.28450 -1.41300
C9A C 1.152(2) -0.0854(18) -1.1005(10)
H11A H 1.08710 -0.11540 -1.12360
C10A C 2.350(2) -0.012(2) -1.4302(13)
H12A H 2.35410 -0.07080 -1.42960
C11A C 1.4804(18) 0.212(2) -1.1719(10)
H13A H 1.50120 0.20430 -1.20280
C12A C 1.4596(18) 0.2950(19) -1.159(1)
H14A H 1.47150 0.34380 -1.17910
C13A C 1.8275(17) 0.3562(16) -1.2688(10)
H15A H 1.80150 0.30930 -1.24840
C14A C 1.4696(14) 0.1444(16) -1.1384(9)
H16A H 1.48650 0.09380 -1.14600
C15A C 1.9249(17) 0.4191(16) -1.2634(10)
H17A H 1.97910 0.42440 -1.23720
C16A C 1.7963(18) 0.2678(18) -1.4522(10)
H18A H 1.77300 0.28870 -1.48170
C17A C 1.3729(14) 0.2494(18) -1.036(1)
H19A H 1.39040 0.31890 -1.02770
H20A H 1.40590 0.23400 -1.00520
C18A C 1.2424(16) -0.0211(17) -1.112(1)
H21A H 1.25020 -0.00120 -1.14410
C19A C 1.8420(17) 0.4438(16) -1.3286(10)
H22A H 1.82580 0.46850 -1.35810
C20A C 1.2720(17) -0.0403(15) -1.0299(9)
H23A H 1.30710 -0.03250 -0.99500
C21A C 0.8394(17) -0.4283(16) -1.133(1)
H24A H 0.79250 -0.41390 -1.15400
C22A C 1.5767(18) 0.4331(18) -1.4396(11)
H25A H 1.56650 0.48830 -1.44230
C23A C 1.5596(16) 0.3670(17) -1.4864(9)
H26A H 1.54100 0.37820 -1.52020
C24A C 1.6092(14) 0.4170(16) -1.3883(10)
H27A H 1.61740 0.46040 -1.35800
C25A C 2.324(2) 0.152(2) -1.4371(14)
C26A C 0.9814(16) -0.3131(17) -0.9293(9)
H28A H 1.04450 -0.29010 -0.90550
C27A C 0.9780(16) -0.4248(16) -1.0946(9)
H29A H 1.04680 -0.40750 -1.08410
C28A C 1.6608(14) 0.3247(16) -1.3285(9)
H30A H 1.63350 0.35300 -1.30450
H31A H 1.63460 0.25500 -1.32790
C29A C 1.4221(15) 0.0794(15) -1.0596(9)
H32A H 1.46080 0.04570 -1.06800
H33A H 1.45000 0.11260 -1.02230
C30A C 0.7079(15) -0.6979(14) -1.0628(9)
H34A H 0.71340 -0.71870 -1.09640
C31A C 1.4105(15) 0.2300(16) -1.0828(8)
C32A C 2.365(2) 0.145(2) -1.3893(13)
C33A C 1.5722(16) 0.2839(17) -1.4792(9)
H35A H 1.55640 0.23590 -1.50900
C34A C 0.7002(15) -0.7597(15) -1.0271(9)
H36A H 0.67590 -0.83010 -1.04090
C35A C 1.6316(16) 0.1818(14) -1.4284(10)
H37A H 1.59360 0.13340 -1.46150
H38A H 1.61130 0.15060 -1.39910
C36A C 1.1915(14) 0.1822(15) -1.0908(8)
H39A H 1.20330 0.21110 -1.12020
C37A C 1.6292(14) 0.3369(14) -1.3824(9)
C38A C 1.8893(16) 0.2852(17) -1.4338(9)
H40A H 1.94290 0.31970 -1.44830
C39A C 0.7107(16) -0.4762(15) -0.9832(9)
H41A H 0.67140 -0.46210 -1.01200
H42A H 0.68160 -0.47680 -0.95280
C40A C 0.9070(15) -0.4885(16) -1.0744(10)
H43A H 0.91630 -0.52350 -1.04860
C41A C 0.8894(17) -0.3878(15) -0.9257(9)
H44A H 0.87960 -0.42450 -0.89920
C42A C 1.4213(14) 0.2964(16) -1.1151(9)
H45A H 1.40180 0.34500 -1.10700
C43A C 1.4327(14) 0.1534(14) -1.0930(8)
C44A C 1.8009(16) 0.2040(15) -1.3841(9)
H46A H 1.78220 0.17210 -1.35650
C45A C 1.6073(14) 0.2698(15) -1.4291(10)
C46A C 0.6931(15) -0.6388(15) -0.9628(9)
H47A H 0.66310 -0.62910 -0.93370
C47A C 0.6895(15) -0.7303(14) -0.9769(9)
H48A H 0.64480 -0.78320 -0.96180
C48A C 0.7892(15) -0.1367(13) -0.9880(9)
H49A H 0.75830 -0.13150 -1.02110
C49A C 0.7094(14) -0.5502(14) -1.0955(9)
H50A H 0.68140 -0.50580 -1.08720
H51A H 0.66770 -0.59440 -1.12950
C50A C 0.8608(17) -0.3316(13) -0.9968(8)
H52A H 0.82550 -0.32390 -1.02780
C51A C 0.9016(14) -0.1212(14) -0.9188(8)
H53A H 0.96450 -0.10110 -0.89530
C52A C 0.7081(13) -0.6087(13) -1.0528(8)
C53A C 0.7029(13) -0.5765(13) -1.0006(8)
N15A N 2.3163(16) 0.2149(18) -1.3147(10)
C54A C 2.2597(19) 0.2616(17) -1.3333(10)
H54A H 2.27240 0.30220 -1.35800
N16A N 2.1807(17) 0.2372(19) -1.3086(11)
C55A C 2.1886(18) 0.1754(19) -1.2747(11)
H55A H 2.14530 0.14800 -1.25320
C56A C 2.272(2) 0.1616(19) -1.2785(11)
H56A H 2.29510 0.12340 -1.26000
#END
