
#######################################################################
#
#                 Cambridge Crystallographic Data Centre
#                                CCDC
#
#######################################################################
#
# If this CIF has been generated from an entry in the Cambridge
# Structural Database, then it will include bibliographic, chemical,
# crystal, experimental, refinement or atomic coordinate data resulting
# from the CCDC's data processing and validation procedures.
#
#######################################################################

data_CSD_CIF_ZEDHOH
_audit_creation_date 2013-02-01
_audit_creation_method CSD-ConQuest-V1
_database_code_CSD ZEDHOH
_database_code_depnum_ccdc_archive 'CCDC 871528'
_chemical_formula_sum 'C36 H36 Cu3 Mo12 N18 O40 P1'
_chemical_formula_moiety
;
(C12 H12 Cu1 N6 1+)n,n(C24 H24 Cu2 N12 2+),n(Mo12 O40 P1 3-)
;
_journal_coden_Cambridge 1350
_journal_volume 14
_journal_year 2012
_journal_page_first 6573
_journal_name_full 'CrystEngComm '
loop_
_publ_author_name
"Xiu-Li Hao"
"Yuan-Yuan Ma"
"Chen Zhang"
"Qian Wang"
"Xin Cheng"
"Yong-Hui Wang"
"Yang-Guang Li"
"En-Bo Wang"
_chemical_name_systematic
;
catena-[((\m~2~-1,1'-(1,4-Phenylenebis(methylene))bis(1H-1,2,4-triazole))-copp
er(i)) 
(bis(\m~2~-1,1'-(1,4-phenylenebis(methylene))bis(1H-1,2,4-triazole))-di-copper
(i)) (\m~12~-phosphato)-tetracosakis(\m~2~-oxo)-dodeca-oxo-dodeca-molybdenum]
;
_cell_volume   1735.258
_exptl_crystal_colour 'brown'
_exptl_crystal_density_diffrn 2.616
_exptl_crystal_description 'block'
_diffrn_ambient_temperature 150
_refine_special_details
;
The central phosphate unit of the Keggin anion has oxygen atoms disordered by 
symmetry.
;
#These two values have been output from a single CSD field.
_refine_ls_R_factor_gt 0.035
_refine_ls_wR_factor_gt 0.035
_symmetry_cell_setting triclinic
_symmetry_space_group_name_H-M 'P -1'
_symmetry_Int_Tables_number 2
loop_
_symmetry_equiv_pos_site_id
_symmetry_equiv_pos_as_xyz
1 x,y,z
2 -x,-y,-z
_cell_length_a 11.1768(5)
_cell_length_b 12.2798(7)
_cell_length_c 13.8457(5)
_cell_angle_alpha 92.345(4)
_cell_angle_beta 101.299(4)
_cell_angle_gamma 110.315(5)
_cell_formula_units_Z 1
loop_
_atom_type_symbol
_atom_type_radius_bond
C 0.68
H 0.23
Cu 1.32
Mo 1.50
N 0.68
O 0.56
P 1.05
loop_
_atom_site_label
_atom_site_type_symbol
_atom_site_fract_x
_atom_site_fract_y
_atom_site_fract_z
Cu1 Cu 0.00000 0.00000 0.50000
Cu2 Cu 0.33412(9) 0.66723(9) -0.11142(7)
P1 P 1.00000 1.00000 0.00000
Mo1 Mo 1.12070(5) 1.25939(4) -0.11315(4)
Mo2 Mo 0.99276(5) 1.26824(4) 0.10295(4)
Mo3 Mo 1.29678(5) 1.22778(5) 0.12156(4)
Mo4 Mo 1.16957(5) 1.00028(5) -0.19124(4)
Mo5 Mo 0.85021(7) 1.01326(6) -0.24805(4)
Mo6 Mo 1.29531(6) 0.94440(6) 0.05081(5)
O1 O 1.2686(3) 1.2782(3) 0.0008(3)
O2 O 1.1622(3) 1.2844(3) 0.1537(3)
O3 O 1.0452(3) 1.3085(3) -0.0239(3)
O4 O 0.9848(5) 1.3938(4) 0.1440(4)
O5 O 0.7846(4) 1.0243(4) -0.3635(3)
O6 O 1.2881(4) 0.9947(4) -0.0846(3)
O7 O 1.4352(4) 0.9231(3) 0.0723(3)
O8 O 0.8216(4) 1.1995(4) 0.0098(3)
O9 O 1.2005(4) 1.1548(4) -0.1668(3)
O10 O 0.9719(4) 1.1777(4) -0.2051(3)
O11 O 1.4330(3) 1.3316(4) 0.1833(3)
O12 O 1.1862(4) 1.3800(4) -0.1640(3)
O13 O 1.2427(4) 0.9969(3) -0.2841(3)
O14 O 0.9923(4) 0.9820(4) -0.2656(4)
O15 O 1.2810(8) 1.1492(7) 0.2510(6)
O16? O 0.7932(8) 0.8807(8) -0.2107(6)
O17 O 0.7120(8) 1.0563(9) -0.1931(7)
O18? O 0.7809(8) 1.0805(8) -0.1514(7)
O19 O 0.9240(4) 1.1692(4) 0.1891(3)
O20 O 1.3944(7) 1.1299(8) 0.1057(6)
O21? O 0.6774(8) 0.8958(8) -0.0650(7)
O22 O 0.9267(6) 1.0651(5) 0.0494(5)
O23 O 1.1409(6) 1.0378(6) 0.0813(5)
O24 O 1.0334(6) 1.0576(6) -0.0942(5)
O25 O 0.9353(6) 0.8741(5) -0.0145(5)
C1 C 0.1039(5) 0.2286(5) 0.4375(5)
H1 H 0.10530 0.20080 0.37280
C2 C 0.0811(7) 0.2397(6) 0.5810(5)
H2 H 0.05950 0.21740 0.64220
C3 C 0.2224(6) 0.4458(5) 0.4325(5)
H3 H 0.19950 0.51270 0.45350
H4 H 0.19770 0.43160 0.35910
C4 C 0.3658(6) 0.4752(5) 0.4665(5)
C5 C 0.4357(7) 0.4386(5) 0.4102(5)
H5 H 0.39190 0.39650 0.34650
C6 C 0.4326(7) 0.5392(6) 0.5573(5)
H6 H 0.38770 0.56800 0.59750
C7 C 0.2981(9) 0.5554(7) 0.0627(7)
H7 H 0.21380 0.50300 0.02910
C8 C 0.4774(7) 0.6966(6) 0.0923(6)
H8 H 0.54680 0.76600 0.08700
C9 C 0.5520(8) 0.6896(7) 0.2729(6)
H9 H 0.63520 0.75160 0.26880
H10 H 0.57340 0.62400 0.30090
C10 C 0.4874(7) 0.7374(6) 0.3425(5)
C11 C 0.3570(8) 0.7238(7) 0.3220(5)
H11 H 0.30250 0.68510 0.25960
C12 C 0.3048(7) 0.7654(7) 0.3905(6)
H12 H 0.21450 0.75470 0.37540
C13 C 0.3807(7) 0.8213(6) 0.4788(5)
C14 C 0.5088(7) 0.8372(6) 0.4989(5)
H13 H 0.56270 0.87860 0.56060
C15 C 0.5640(6) 0.7950(6) 0.4323(5)
H14 H 0.65440 0.80590 0.44870
C16 C 0.1887(8) 0.6326(7) 0.6825(7)
H15 H 0.12760 0.55800 0.68800
C17 C 0.3474(7) 0.7918(6) 0.7186(6)
H16 H 0.42230 0.85600 0.75280
C18 C 0.3240(8) 0.8665(6) 0.5564(5)
H17 H 0.38940 0.94130 0.59230
H18 H 0.24550 0.88160 0.52290
N1 N 0.0576(5) 0.1610(4) 0.5036(4)
N2 N 0.1485(5) 0.3410(4) 0.4739(4)
N3 N 0.1358(5) 0.3503(5) 0.5679(4)
N4 N 0.3803(7) 0.6397(5) 0.0195(4)
N5 N 0.4697(7) 0.6487(6) 0.1729(5)
N6 N 0.3507(8) 0.5562(6) 0.1568(6)
N7 N 0.2870(6) 0.6973(6) 0.7576(4)
N8 N 0.2888(6) 0.7836(5) 0.6265(5)
N9 N 0.1855(6) 0.6825(6) 0.6010(5)
Cu1* Cu 1.00000 1.00000 0.50000
Cu2* Cu 0.33412(9) 0.66723(9) -1.11142(7)
Cu2** Cu 0.33412(9) 0.66723(9) 0.88858(7)
Mo1A Mo 0.87930(5) 0.74061(4) 0.11315(4)
Mo2A Mo 1.00724(5) 0.73176(4) -0.10295(4)
Mo3A Mo 0.70322(5) 0.77222(5) -0.12156(4)
Mo4A Mo 0.83043(5) 0.99972(5) 0.19124(4)
Mo5A Mo 1.14979(7) 0.98674(6) 0.24805(4)
Mo6A Mo 0.70469(6) 1.05560(6) -0.05081(5)
O1A O 0.7314(3) 0.7218(3) -0.0008(3)
O2A O 0.8378(3) 0.7156(3) -0.1537(3)
O3A O 0.9548(3) 0.6915(3) 0.0239(3)
O4A O 1.0152(5) 0.6062(4) -0.1440(4)
O5A O 1.2154(4) 0.9757(4) 0.3635(3)
O6A O 0.7119(4) 1.0053(4) 0.0846(3)
O7A O 0.5648(4) 1.0769(3) -0.0723(3)
O8A O 1.1784(4) 0.8005(4) -0.0098(3)
O9A O 0.7995(4) 0.8452(4) 0.1668(3)
O10A O 1.0281(4) 0.8223(4) 0.2051(3)
O11A O 0.5670(3) 0.6684(4) -0.1833(3)
O12A O 0.8138(4) 0.6200(4) 0.1640(3)
O13A O 0.7573(4) 1.0031(3) 0.2841(3)
O14A O 1.0077(4) 1.0180(4) 0.2656(4)
O15A O 0.7190(8) 0.8508(7) -0.2510(6)
O17A O 1.2880(8) 0.9437(9) 0.1931(7)
O19A O 1.0760(4) 0.8308(4) -0.1891(3)
O20A O 0.6056(7) 0.8701(8) -0.1057(6)
O22A O 1.0733(6) 0.9349(5) -0.0494(5)
O23A O 0.8591(6) 0.9622(6) -0.0813(5)
O24A O 0.9666(6) 0.9424(6) 0.0942(5)
O25A O 1.0647(6) 1.1259(5) 0.0145(5)
C1A C 0.8961(5) 0.7714(5) 0.5625(5)
H1A H 0.89470 0.79920 0.62720
C2A C 0.9189(7) 0.7603(6) 0.4190(5)
H2A H 0.94050 0.78260 0.35780
C3A C 0.7776(6) 0.5542(5) 0.5675(5)
H3A H 0.80050 0.48730 0.54650
H4A H 0.80230 0.56840 0.64090
C4A C 0.6342(6) 0.5248(5) 0.5335(5)
C5A C 0.5643(7) 0.5614(5) 0.5898(5)
H5A H 0.60810 0.60350 0.65350
C6A C 0.5674(7) 0.4608(6) 0.4427(5)
H6A H 0.61230 0.43200 0.40250
C7* C 0.2981(9) 0.5554(7) -0.9373(7)
H7* H 0.21380 0.50300 -0.97090
C8* C 0.4774(7) 0.6966(6) -0.9077(6)
H8* H 0.54680 0.76600 -0.91300
C9* C 0.5520(8) 0.6896(7) -0.7271(6)
H9* H 0.63520 0.75160 -0.73120
H10* H 0.57340 0.62400 -0.69910
C10* C 0.4874(7) 0.7374(6) -0.6575(5)
C11* C 0.3570(8) 0.7238(7) -0.6780(5)
H11* H 0.30250 0.68510 -0.74040
C12* C 0.3048(7) 0.7654(7) -0.6095(6)
H12* H 0.21450 0.75470 -0.62460
C13* C 0.3807(7) 0.8213(6) -0.5212(5)
C14* C 0.5088(7) 0.8372(6) -0.5011(5)
H13* H 0.56270 0.87860 -0.43940
C15* C 0.5640(6) 0.7950(6) -0.5677(5)
H14* H 0.65440 0.80590 -0.55130
C16* C 0.1887(8) 0.6326(7) -0.3175(7)
H15* H 0.12760 0.55800 -0.31200
C17* C 0.3474(7) 0.7918(6) -0.2814(6)
H16* H 0.42230 0.85600 -0.24720
C18* C 0.3240(8) 0.8665(6) -0.4436(5)
H17* H 0.38940 0.94130 -0.40770
H18* H 0.24550 0.88160 -0.47710
N1A N 0.9424(5) 0.8390(4) 0.4964(4)
N1A* N -0.0576(5) -0.1610(4) 0.4964(4)
N2A N 0.8515(5) 0.6590(4) 0.5261(4)
N3A N 0.8642(5) 0.6497(5) 0.4321(4)
N4* N 0.3803(7) 0.6397(5) -0.9805(4)
N5* N 0.4697(7) 0.6487(6) -0.8271(5)
N6* N 0.3507(8) 0.5562(6) -0.8432(6)
N7* N 0.2870(6) 0.6973(6) -0.2424(4)
N7** N 0.2870(6) 0.6973(6) -1.2424(4)
N8* N 0.2888(6) 0.7836(5) -0.3735(5)
N9* N 0.1855(6) 0.6825(6) -0.3990(5)
#END
