
#######################################################################
#
#                 Cambridge Crystallographic Data Centre
#                                CCDC
#
#######################################################################
#
# If this CIF has been generated from an entry in the Cambridge
# Structural Database, then it will include bibliographic, chemical,
# crystal, experimental, refinement or atomic coordinate data resulting
# from the CCDC's data processing and validation procedures.
#
#######################################################################

data_CSD_CIF_ZEDJAV
_audit_creation_date 2013-02-01
_audit_creation_method CSD-ConQuest-V1
_database_code_CSD ZEDJAV
_database_code_depnum_ccdc_archive 'CCDC 871981'
_chemical_formula_sum 'C72 H76 Cu6 N36 O42 Si1 W12'
_chemical_formula_moiety
;
(C24 H24 Cu2 N12 2+)n,n(C48 H48 Cu4 N24 4+),n(O40 Si1 W12 6-),2n(H2 O1)
;
_journal_coden_Cambridge 1350
_journal_volume 14
_journal_year 2012
_journal_page_first 6573
_journal_name_full 'CrystEngComm '
loop_
_publ_author_name
"Xiu-Li Hao"
"Yuan-Yuan Ma"
"Chen Zhang"
"Qian Wang"
"Xin Cheng"
"Yong-Hui Wang"
"Yang-Guang Li"
"En-Bo Wang"
_chemical_name_systematic
;
catena-[(bis(\m~2~-1,1'-(1,4-Phenylenebis(methylene))bis(1H-1,2,4-triazole))-d
i-copper(i)) 
(tetrakis(\m~2~-1,1'-(1,4-phenylenebis(methylene))bis(1H-1,2,4-triazole))-tetr
a-copper(i)) 
(\m~12~-silicato)-tetracosakis(\m~2~-oxo)-dodeca-oxo-di-tungsten(v)-deca-tungs
ten(vi) dihydrate]
;
_cell_volume   2618.176
_exptl_crystal_colour 'black'
_exptl_crystal_density_diffrn 3.002
_exptl_crystal_description 'block'
_diffrn_ambient_temperature 150
_refine_special_details
;
The central silicate unit of the Keggin anion has oxygen atoms disordered by 
symmetry.
;
#These two values have been output from a single CSD field.
_refine_ls_R_factor_gt 0.0418
_refine_ls_wR_factor_gt 0.0418
_symmetry_cell_setting triclinic
_symmetry_space_group_name_H-M 'P -1'
_symmetry_Int_Tables_number 2
loop_
_symmetry_equiv_pos_site_id
_symmetry_equiv_pos_as_xyz
1 x,y,z
2 -x,-y,-z
_cell_length_a 14.0334(9)
_cell_length_b 14.4092(9)
_cell_length_c 15.3559(9)
_cell_angle_alpha 87.956(1)
_cell_angle_beta 62.931(1)
_cell_angle_gamma 72.497(1)
_cell_formula_units_Z 1
loop_
_atom_type_symbol
_atom_type_radius_bond
C 0.68
H 0.23
Cu 1.32
N 0.68
O 0.68
Si 1.20
W 1.38
loop_
_atom_site_label
_atom_site_type_symbol
_atom_site_fract_x
_atom_site_fract_y
_atom_site_fract_z
W1 W 0.29059(4) 0.45357(4) 0.83989(3)
W2 W -0.17141(4) 0.44877(3) 0.91213(4)
W3 W -0.10778(4) 0.30234(3) 1.07930(3)
W4 W 0.11590(4) 0.40532(4) 0.75104(3)
W5 W 0.06815(4) 0.35231(3) 1.16629(3)
W6 W 0.18180(4) 0.25790(3) 0.91808(3)
Si1 Si 0.00000 0.50000 1.00000
O1 O 0.1102(10) 0.4258(8) 0.9104(8)
O2 O 0.0264(11) 0.3935(9) 1.0318(9)
O3 O -0.0253(10) 0.5038(8) 0.9057(8)
O4 O 0.1075(10) 0.5392(8) 0.9703(8)
O5 O 0.2615(13) 0.4213(10) 0.7317(11)
O6 O 0.3082(12) 0.493(1) 0.9551(10)
O7 O 0.2560(12) 0.6025(10) 0.8303(10)
O8 O 0.1629(13) 0.4293(12) 1.1143(12)
O9 O -0.0275(14) 0.3900(12) 0.8259(12)
O10 O 0.0530(12) 0.5365(10) 0.7668(11)
O11 O -0.1674(13) 0.3242(11) 0.9815(11)
O12 O 0.1812(13) 0.2703(11) 0.7892(11)
O13 O 0.2671(13) 0.3435(10) 0.8884(10)
O14 O -0.0365(14) 0.2851(11) 1.1707(11)
O15 O 0.0357(14) 0.2556(12) 0.9731(12)
O16 O -0.1577(8) 0.2080(6) 1.1154(6)
O17 O 0.1715(7) 0.2729(7) 1.0435(6)
O18 O 0.1730(7) 0.3579(5) 0.6328(5)
O19 O 0.1028(7) 0.2816(6) 1.2423(6)
O20 O 0.4289(7) 0.4297(6) 0.7628(6)
O21 O 0.2666(7) 0.1414(6) 0.8800(6)
O22 O -0.2535(6) 0.4246(5) 0.8690(6)
Cu1 Cu 0.38980(14) 0.39981(11) 0.54772(13)
Cu2 Cu 0.86823(17) -0.00223(18) 1.08311(13)
Cu3 Cu -0.45134(15) 0.45355(11) 0.87424(12)
N1 N 0.4503(6) 0.2620(5) 0.5462(5)
C1 C 0.4217(6) 0.2168(5) 0.6279(5)
H1 H 0.37090 0.24670 0.69180
N2 N 0.4794(6) 0.1208(5) 0.6012(5)
N3 N 0.5435(7) 0.1067(5) 0.5031(5)
C2 C 0.5255(7) 0.1940(5) 0.4691(5)
H2 H 0.55930 0.20540 0.40350
N4 N 0.8547(7) 0.0231(6) 0.9656(5)
C3 C 0.8642(7) -0.0428(5) 0.9008(5)
H3 H 0.87710 -0.10960 0.90550
N5 N 0.8518(7) 0.0039(5) 0.8281(5)
N6 N 0.8346(8) 0.0987(5) 0.8480(6)
C4 C 0.8365(8) 0.1105(5) 0.9330(6)
H4 H 0.82670 0.16940 0.96400
N7 N 0.3424(7) 0.5366(5) 0.5392(5)
C5 C 0.3725(7) 0.5795(5) 0.4562(5)
H5 H 0.42230 0.54770 0.39280
N8 N 0.3183(7) 0.6759(5) 0.4805(5)
N9 N 0.2547(7) 0.6927(5) 0.5785(5)
C6 C 0.2696(7) 0.6066(5) 0.6147(5)
H6 H 0.23530 0.59710 0.68080
N10 N 0.8773(8) -0.0191(7) 1.2028(6)
C7 C 0.8911(8) -0.1043(6) 1.2392(6)
H7 H 0.90280 -0.16430 1.20880
N11 N 0.8852(7) -0.0889(6) 1.3265(6)
N12 N 0.8678(7) 0.0059(6) 1.3442(5)
C8 C 0.8629(8) 0.0491(6) 1.2677(6)
H8 H 0.85150 0.11530 1.26080
C9 C 0.4769(10) 0.0438(8) 0.6655(8)
H9 H 0.48190 -0.01530 0.63310
H10 H 0.40570 0.06380 0.72560
C10 C 0.8624(10) -0.0354(8) 0.7379(8)
H11 H 0.89710 -0.10590 0.72950
H12 H 0.91380 -0.00990 0.68360
C11 C 0.5741(6) 0.0220(5) 0.6910(5)
C12 C 0.5788(6) 0.0925(5) 0.7456(5)
H13 H 0.52130 0.15240 0.76920
C13 C 0.6687(6) 0.0744(5) 0.7651(5)
H14 H 0.67190 0.12210 0.80200
C14 C 0.7538(6) -0.0141(5) 0.7301(5)
C15 C 0.7490(6) -0.0846(5) 0.6756(5)
H15 H 0.80660 -0.14440 0.65190
C16 C 0.6591(6) -0.0665(5) 0.6560(5)
H16 H 0.65590 -0.11420 0.61910
C17 C 0.3154(11) 0.7510(9) 0.4173(9)
H17 H 0.38030 0.72840 0.35280
H18 H 0.31980 0.80870 0.44400
C18 C 0.8972(13) -0.161(1) 1.3944(10)
H19 H 0.89310 -0.22180 1.37350
H20 H 0.83470 -0.13670 1.45990
C19 C 0.2062(6) 0.7779(6) 0.4075(6)
C20 C 0.1133(6) 0.8526(6) 0.4703(5)
H21 H 0.11780 0.88950 0.51600
C21 C 0.0140(6) 0.8729(6) 0.4659(5)
H22 H -0.04910 0.92370 0.50860
C22 C 1.0075(7) -0.1814(6) 1.3987(5)
C23 C 1.1003(7) -0.2561(6) 1.3358(6)
H23 H 1.09590 -0.29300 1.29020
C24 C 0.1997(7) 0.7236(6) 0.3402(6)
H24 H 0.26280 0.67280 0.29760
N13 N -0.4140(6) 0.5447(6) 0.7798(6)
C25 C -0.3094(6) 0.5513(6) 0.7298(6)
H25 H -0.24760 0.51770 0.73930
N14 N -0.3097(6) 0.6149(5) 0.6637(5)
N15 N -0.4145(6) 0.6476(6) 0.6728(6)
C26 C -0.4790(6) 0.6043(6) 0.7445(6)
H26 H -0.55520 0.61380 0.76600
N16 N -0.4727(6) 0.3558(5) 0.9627(6)
C27 C -0.5583(6) 0.3185(5) 1.0028(5)
H27 H -0.62040 0.33430 0.99110
N17 N -0.5384(6) 0.2542(5) 1.0629(5)
N18 N -0.4405(6) 0.2518(6) 1.0598(6)
C28 C -0.3999(7) 0.3146(6) 0.9979(7)
H28 H -0.33310 0.32740 0.98220
C29 C -0.2187(11) 0.6498(9) 0.5941(9)
H29 H -0.21360 0.70210 0.62820
H30 H -0.23680 0.67690 0.54270
C30 C -0.0907(12) 0.4836(9) 0.4985(9)
H31 H -0.15120 0.47210 0.49590
C31 C -0.1072(10) 0.5715(9) 0.5482(8)
C32 C -0.0148(11) 0.5854(9) 0.5463(9)
H32 H -0.02330 0.64420 0.57660
C33 C -0.5985(11) 0.1890(9) 1.1175(9)
H33 H -0.67750 0.21640 1.13360
H34 H -0.59380 0.18160 1.17860
C34 C -0.5483(10) 0.0905(8) 1.0573(8)
C35 C -0.4506(10) 0.0220(9) 1.0530(9)
H35 H -0.41740 0.03580 1.08920
C36 C -0.5951(11) 0.0657(9) 1.0054(11)
H36 H -0.66120 0.11000 1.00960
O23 O 0.3655(14) 0.8479(12) 0.7816(12)
O24? O 0.0457(12) 0.5434(10) 0.7251(11)
O25? O -0.1271(13) 0.3464(11) 0.9712(11)
O26? O 0.1359(13) 0.3079(11) 0.8228(11)
O27? O 0.3130(13) 0.3075(11) 0.8550(11)
O28? O 0.0495(13) 0.6750(12) 0.8412(12)
O29? O -0.0479(14) 0.7862(12) 1.0172(11)
O30? O 0.2175(14) 0.4521(12) 0.7688(12)
O31? O 0.2602(12) 0.473(1) 0.9677(10)
O32? O 0.2095(13) 0.5812(10) 0.8452(10)
O33? O -0.1700(13) 0.5756(11) 0.8454(12)
O34? O -0.0294(13) 0.3912(12) 0.7840(12)
W2A W 0.17141(4) 0.55123(3) 1.08787(4)
W3A W 0.10778(4) 0.69766(3) 0.92070(3)
W5A W -0.06815(4) 0.64769(3) 0.83371(3)
O1A O -0.1102(10) 0.5742(8) 1.0896(8)
O2A O -0.0264(11) 0.6065(9) 0.9682(9)
O3A O 0.0253(10) 0.4962(8) 1.0943(8)
O4A O -0.1075(10) 0.4608(8) 1.0297(8)
O6A O -0.3082(12) 0.507(1) 1.0449(10)
O7A O -0.2560(12) 0.3975(10) 1.1697(10)
O8A O -0.1629(13) 0.5707(12) 0.8857(12)
O10A O -0.0530(12) 0.4635(10) 1.2332(11)
C21* C 1.0140(6) -0.1271(6) 1.4659(5)
C22* C 0.0075(7) 0.8186(6) 0.3987(5)
C23* C 0.1003(7) 0.7439(6) 0.3358(6)
C24* C 1.1997(7) -0.2764(6) 1.3402(6)
C30A C 0.0907(12) 0.5164(9) 0.5015(9)
C32A C 0.0148(11) 0.4146(9) 0.4537(9)
C35A C -0.5494(10) -0.0220(9) 0.9470(9)
C36A C -0.4049(11) -0.0657(9) 0.9946(11)
#END
