
#######################################################################
#
#                 Cambridge Crystallographic Data Centre
#                                CCDC
#
#######################################################################
#
# If this CIF has been generated from an entry in the Cambridge
# Structural Database, then it will include bibliographic, chemical,
# crystal, experimental, refinement or atomic coordinate data resulting
# from the CCDC's data processing and validation procedures.
#
#######################################################################

data_CSD_CIF_ZEDVIP
_audit_creation_date 2013-04-04
_audit_creation_method CSD-ConQuest-V1
_database_code_CSD ZEDVIP
_database_code_depnum_ccdc_archive 'CCDC 824438'
_chemical_formula_sum 'C156 H184 Eu4 N20 O78'
_chemical_formula_moiety
;
(C80 H52 Eu4 O46 8-)n,2n(C38 H34 N10 4+),32n(H2 O1)
;
_journal_coden_Cambridge 182
_journal_volume 48
_journal_year 2012
_journal_page_first 10186
_journal_name_full 'Chem.Commun. '
loop_
_publ_author_name
"Han-Yuan Gong"
"B.M.Rambo"
"C.Nelson"
"V.M.Lynch"
"Xiaoyang Zhu"
"J.L.Sessler"
_chemical_name_systematic
;
catena((3)bis(cyclo(bis(2,6-bis(1H-imidazol-1-yl)pyridine)))-octakis(\m~2~-ter
ephthalato)-bis(terephthalato)-hexaaqua-tetra-europium(iii) rotaxane hydrate)
;
_cell_volume   9289.798
_exptl_crystal_colour 'colorless'
_exptl_crystal_density_diffrn 1.5
_exptl_crystal_description 'prism'
_diffrn_ambient_temperature 100
_refine_special_details
;
A large number of molecules of what appeared to be free water molecules were 
badly disordered around a crystallographic inversion center and attempts to 
model the disorder were unsatisfactory. The contributions to the scattering 
factors due to these molecules were removed by use of the SQUEEZE/PLATON 
program. C78 H92 Eu2 N10 O39.
;
#These two values have been output from a single CSD field.
_refine_ls_R_factor_gt 0.0856
_refine_ls_wR_factor_gt 0.0856
_symmetry_cell_setting monoclinic
_symmetry_space_group_name_H-M 'P 21/c'
_symmetry_Int_Tables_number 14
loop_
_symmetry_equiv_pos_site_id
_symmetry_equiv_pos_as_xyz
1 x,y,z
2 -x,1/2+y,1/2-z
3 -x,-y,-z
4 x,-1/2-y,-1/2+z
_cell_length_a 23.198(5)
_cell_length_b 15.455(3)
_cell_length_c 34.046(10)
_cell_angle_alpha 90
_cell_angle_beta 130.442(19)
_cell_angle_gamma 90
_cell_formula_units_Z 2
loop_
_atom_type_symbol
_atom_type_radius_bond
C 0.68
H 0.23
Eu 1.68
N 0.68
O 0.68
loop_
_atom_site_label
_atom_site_type_symbol
_atom_site_fract_x
_atom_site_fract_y
_atom_site_fract_z
Eu1 Eu 0.45499(3) 0.25785(3) 0.58695(2)
Eu2 Eu 1.02036(3) 0.26500(4) 0.64573(2)
O1 O 0.4127(4) 0.2668(4) 0.5005(3)
O2 O 0.5520(4) 0.2532(5) 0.6812(3)
O3 O 0.3228(4) 0.2629(4) 0.5049(3)
O4 O 1.0195(4) 0.1078(5) 0.6552(4)
O5 O 0.4485(4) 0.1125(4) 0.5692(3)
O6 O 0.9292(4) 0.2332(4) 0.5526(3)
O7 O 0.4871(5) -0.0193(5) 0.6017(3)
O8 O 0.4852(4) 0.4019(4) 0.5903(3)
O9 O 0.5043(5) 0.5405(4) 0.6092(3)
O10 O 0.5699(4) 0.2353(5) 0.6037(3)
O11 O 0.6697(5) 0.2320(6) 0.6871(4)
O12 O 0.9032(4) 0.2479(6) 0.6258(3)
O13 O 0.8025(4) 0.2549(6) 0.5412(4)
O14 O 0.3826(4) 0.3349(4) 0.6080(3)
O15 O 0.3807(4) 0.1960(4) 0.6080(3)
O16 O 0.1148(4) 0.3395(4) 0.6434(3)
O17 O 0.0964(4) 0.2033(4) 0.6257(3)
O18 O 0.0520(4) 0.2579(5) 0.2319(3)
O19 O 0.1472(3) 0.2501(4) 0.2319(3)
O20 O 1.0283(4) 0.4029(5) 0.6830(3)
O21 O 0.9671(4) 0.4098(5) 0.6004(3)
O22 O 1.0643(8) 0.8525(6) 0.7001(6)
O23 O 1.1069(9) 0.8381(7) 0.6605(6)
N1 N 0.2262(5) 0.4929(6) 0.2802(4)
N2 N 0.3013(5) 0.4413(7) 0.2693(4)
N3 N 0.3217(5) 0.3012(6) 0.2620(3)
N4 N 0.3344(4) 0.1526(6) 0.2576(3)
N5 N 0.2712(5) 0.0469(6) 0.2533(3)
N6 N 0.2183(6) 0.0352(5) 0.4465(4)
N7 N 0.1463(5) 0.1046(6) 0.4576(3)
N8 N 0.1541(5) 0.2425(6) 0.4815(3)
N9 N 0.1679(5) 0.3880(5) 0.5027(4)
N10 N 0.2379(4) 0.4835(5) 0.5050(3)
C1 C 0.2453(6) 0.4212(8) 0.2686(5)
H1 H 0.22300 0.36700 0.26140
C2 C 0.2744(7) 0.5605(7) 0.2895(5)
H2 H 0.27410 0.61700 0.29880
C3 C 0.3196(7) 0.5293(9) 0.2827(5)
H3 H 0.35730 0.55960 0.28600
C4 C 0.3386(6) 0.3818(6) 0.2612(4)
C5 C 0.3882(7) 0.4038(9) 0.2550(5)
H4 H 0.39680 0.46200 0.25360
C6 C 0.4259(6) 0.3432(10) 0.2506(5)
H5 H 0.46130 0.35920 0.24740
C7 C 0.4101(6) 0.2550(8) 0.2511(4)
H6 H 0.43360 0.20990 0.24810
C8 C 0.3556(6) 0.2418(7) 0.2565(4)
C9 C 0.2745(5) 0.1315(7) 0.2510(4)
H7 H 0.23930 0.17040 0.24560
C10 C 0.3740(8) 0.0796(10) 0.2622(5)
H8 H 0.41710 0.07600 0.26570
C11 C 0.3303(7) 0.0120(8) 0.2602(5)
H9 H 0.34090 -0.04680 0.26320
C12 C 0.2144(6) 0.0016(6) 0.2511(4)
H10 H 0.21310 -0.05860 0.24240
H11 H 0.16510 0.02660 0.22400
C13 C 0.2303(7) 0.0064(6) 0.3011(5)
C14 C 0.2996(7) -0.0246(6) 0.3481(5)
H12 H 0.33570 -0.04880 0.34760
C15 C 0.3141(7) -0.0195(6) 0.3937(4)
H13 H 0.36000 -0.03870 0.42410
C16 C 0.2598(8) 0.0144(7) 0.3935(6)
C17 C 0.1906(7) 0.0418(6) 0.3489(6)
H14 H 0.15360 0.06270 0.34950
C18 C 0.1783(8) 0.0373(7) 0.3041(5)
H15 H 0.13200 0.05640 0.27390
C19 C 0.2790(8) 0.0156(7) 0.4470(5)
H16 H 0.29920 -0.04070 0.46300
H17 H 0.31900 0.05760 0.46890
C20 C 0.2126(7) 0.1072(8) 0.4665(5)
H18 H 0.24830 0.15140 0.48350
C21 C 0.1553(7) -0.0160(8) 0.4256(5)
H19 H 0.14660 -0.07060 0.41130
C22 C 0.1069(7) 0.0286(7) 0.4299(5)
H20 H 0.05900 0.01160 0.41720
C23 C 0.1214(6) 0.1644(8) 0.4736(5)
C24 C 0.0706(7) 0.1448(7) 0.4780(5)
H21 H 0.04990 0.08980 0.47140
C25 C 0.0493(7) 0.2170(9) 0.4940(5)
H22 H 0.01400 0.20810 0.49830
C26 C 0.0808(7) 0.2983(9) 0.5030(5)
H23 H 0.06720 0.34440 0.51310
C27 C 0.1336(6) 0.3080(7) 0.4964(4)
C28 C 0.2215(5) 0.3978(7) 0.4993(4)
H24 H 0.24350 0.35430 0.49400
C29 C 0.1526(7) 0.4702(7) 0.5130(5)
H25 H 0.11940 0.48260 0.51880
C30 C 0.1936(6) 0.5221(8) 0.5126(4)
H26 H 0.19360 0.58140 0.51720
C31 C 0.2900(6) 0.5195(7) 0.4977(5)
H27 H 0.29970 0.57990 0.50780
H28 H 0.33800 0.48900 0.52020
C32 C 0.2604(7) 0.5127(6) 0.4459(5)
C33 C 0.3045(8) 0.4808(7) 0.4335(6)
H29 H 0.35370 0.46210 0.45990
C34 C 0.2763(7) 0.4769(7) 0.3838(6)
H30 H 0.30760 0.45580 0.37800
C35 C 0.2018(6) 0.5033(7) 0.3403(6)
C36 C 0.1594(7) 0.5363(8) 0.3541(6)
H31 H 0.11090 0.55670 0.32740
C37 C 0.1832(7) 0.5402(7) 0.4014(5)
H32 H 0.15090 0.56060 0.40650
C38 C 0.1691(6) 0.4975(7) 0.2868(5)
H33 H 0.13720 0.54770 0.26830
H34 H 0.13720 0.44650 0.27140
C39 C 0.3430(5) 0.2656(5) 0.4777(4)
C40 C 0.2865(6) 0.2627(6) 0.4223(4)
C41 C 0.2077(6) 0.2688(6) 0.3959(5)
H35 H 0.19090 0.27380 0.41420
C42 C 0.3098(6) 0.2521(5) 0.3937(5)
H36 H 0.36110 0.24650 0.41060
C43 C 0.4756(6) 0.0377(7) 0.5732(6)
C44 C 0.4861(7) 0.0178(7) 0.5339(5)
C45 C 0.4968(7) -0.0635(7) 0.5253(5)
H37 H 0.49520 -0.10870 0.54270
C46 C 0.4901(7) 0.0830(7) 0.5075(5)
H38 H 0.48390 0.14040 0.51220
C47 C 0.4986(6) 0.4773(7) 0.5846(5)
C48 C 0.5004(5) 0.4906(5) 0.5413(4)
C49 C 0.4867(5) 0.5704(7) 0.5192(4)
H39 H 0.47930 0.61770 0.53240
C50 C 0.5163(5) 0.4186(6) 0.5223(4)
H40 H 0.52860 0.36480 0.53820
C51 C 0.6401(6) 0.2342(7) 0.6400(5)
C52 C 0.6904(6) 0.2369(7) 0.6262(5)
C53 C 0.7695(5) 0.2370(8) 0.6651(5)
H41 H 0.79130 0.23600 0.69960
C54 C 0.8147(6) 0.2384(8) 0.6524(5)
H42 H 0.86700 0.23580 0.67840
C55 C 0.7836(6) 0.2437(7) 0.6018(5)
C56 C 0.7024(5) 0.2446(6) 0.5621(5)
H43 H 0.68090 0.24700 0.52760
C57 C 0.6570(6) 0.2419(6) 0.5739(5)
H44 H 0.60460 0.24330 0.54800
C58 C 0.8344(7) 0.2492(8) 0.5898(6)
C59 C 0.3604(6) 0.2673(7) 0.6130(4)
C60 C 0.3025(5) 0.2708(6) 0.6190(4)
C61 C 0.2796(5) 0.3460(6) 0.6275(4)
H45 H 0.30120 0.39840 0.62960
C62 C 0.2280(6) 0.3455(6) 0.6329(4)
H46 H 0.21480 0.39810 0.63850
C63 C 0.1927(5) 0.2718(6) 0.6308(4)
C64 C 0.2139(5) 0.1944(6) 0.6227(4)
H47 H 0.19120 0.14310 0.62060
C65 C 0.2687(6) 0.1929(6) 0.6177(4)
H48 H 0.28360 0.14020 0.61360
C66 C 0.1300(5) 0.2739(7) 0.6334(4)
C67 C 0.1219(6) 0.2550(6) 0.2550(4)
C68 C 0.1795(6) 0.2593(6) 0.3139(5)
C69 C 0.1555(6) 0.2673(6) 0.3414(5)
H49 H 0.10400 0.27170 0.32380
C70 C 0.2560(6) 0.2498(6) 0.3391(5)
H50 H 0.27180 0.24200 0.32030
C71 C 0.9991(7) 0.4423(8) 0.6433(6)
C72 C 1.0113(6) 0.5402(7) 0.6466(5)
C73 C 1.0215(9) 0.5831(10) 0.6874(6)
H51 H 1.01740 0.55320 0.70920
C74 C 1.0379(8) 0.6714(9) 0.6942(6)
H52 H 1.04030 0.70020 0.71920
C75 C 1.0507(7) 0.7183(8) 0.6662(5)
C76 C 1.0386(7) 0.671(1) 0.6276(5)
H53 H 1.04270 0.70040 0.60560
C77 C 1.0207(8) 0.5828(9) 0.6175(5)
H54 H 1.01570 0.55520 0.59120
C78 C 1.0715(8) 0.807(1) 0.6747(7)
Eu1B Eu 0.54501(3) -0.25785(3) 0.41305(2)
Eu1B* Eu 0.54501(3) 0.74215(3) 0.41305(2)
Eu1* Eu 1.45499(3) 0.25785(3) 0.58695(2)
Eu1C Eu 1.45499(3) 0.24215(3) 1.08695(2)
Eu2* Eu 0.02036(3) 0.26500(4) 0.64573(2)
Eu2C Eu 0.02036(3) 0.23500(4) 0.14573(2)
Eu2B Eu -0.02036(3) -0.26500(4) 0.35427(2)
O1C O 1.4127(4) 0.2332(4) 1.0005(3)
O1B O 0.5873(4) -0.2668(4) 0.4995(3)
O2B O 0.4480(4) -0.2532(5) 0.3188(3)
O3C O 1.3228(4) 0.2371(4) 1.0049(3)
O3B O 0.6772(4) -0.2629(4) 0.4951(3)
O4* O 0.0195(4) 0.1078(5) 0.6552(4)
O5B O 0.5515(4) -0.1125(4) 0.4308(3)
O6* O -0.0708(4) 0.2332(4) 0.5526(3)
O7B O 0.5129(5) 0.0193(5) 0.3983(3)
O8B O 0.5148(4) 0.5981(4) 0.4097(3)
O8B* O 0.5148(4) -0.4019(4) 0.4097(3)
O9B O 0.4957(5) 0.4595(4) 0.3908(3)
O10B O 0.4301(4) -0.2353(5) 0.3963(3)
O11B O 0.3303(5) -0.2320(6) 0.3129(4)
O12B O 0.0968(4) -0.2479(6) 0.3742(3)
O12* O -0.0968(4) 0.2479(6) 0.6258(3)
O13B O 0.1975(4) -0.2549(6) 0.4588(4)
O14* O 1.3826(4) 0.3349(4) 0.6080(3)
O14B O 0.6174(4) -0.3349(4) 0.3920(3)
O15* O 1.3807(4) 0.1960(4) 0.6080(3)
O15B O 0.6193(4) -0.1960(4) 0.3920(3)
O16* O 1.1148(4) 0.3395(4) 0.6434(3)
O17* O 1.0964(4) 0.2033(4) 0.6257(3)
O18C O 1.0520(4) 0.2421(5) 0.7319(3)
O18C* O 0.0520(4) 0.2421(5) 0.7319(3)
O19C O 1.1472(3) 0.2499(4) 0.7319(3)
O19C* O 0.1472(3) 0.2499(4) 0.7319(3)
O20* O 0.0283(4) 0.4029(5) 0.6830(3)
O21* O -0.0329(4) 0.4098(5) 0.6004(3)
O22* O 0.0643(8) 0.8525(6) 0.7001(6)
O23* O 0.1069(9) 0.8381(7) 0.6605(6)
C39C C 1.3430(5) 0.2344(5) 0.9777(4)
C40C C 1.2865(6) 0.2373(6) 0.9223(4)
C41C C 1.2077(6) 0.2312(6) 0.8959(5)
H35C H 1.19090 0.22620 0.91420
C42C C 1.3098(6) 0.2479(5) 0.8937(5)
H36C H 1.36110 0.25350 0.91060
C43B C 0.5244(6) -0.0377(7) 0.4268(6)
C44B C 0.5139(7) -0.0178(7) 0.4661(5)
C45B C 0.5032(7) 0.0635(7) 0.4747(5)
H37B H 0.50480 0.10870 0.45730
C46B C 0.5099(7) -0.0830(7) 0.4925(5)
H38B H 0.51610 -0.14040 0.48780
C47B C 0.5014(6) 0.5227(7) 0.4154(5)
C48B C 0.4996(5) 0.5094(5) 0.4587(4)
C49B C 0.5133(5) 0.4296(7) 0.4808(4)
H39B H 0.52070 0.38230 0.46760
C50B C 0.4837(5) 0.5814(6) 0.4777(4)
H40B H 0.47140 0.63520 0.46180
C51B C 0.3599(6) -0.2342(7) 0.3600(5)
C52B C 0.3096(6) -0.2369(7) 0.3738(5)
C53B C 0.2305(5) -0.2370(8) 0.3349(5)
H41B H 0.20870 -0.23600 0.30040
C54B C 0.1853(6) -0.2384(8) 0.3476(5)
H42B H 0.13300 -0.23580 0.32160
C55B C 0.2164(6) -0.2437(7) 0.3982(5)
C56B C 0.2976(5) -0.2446(6) 0.4379(5)
H43B H 0.31910 -0.24700 0.47240
C57B C 0.3430(6) -0.2419(6) 0.4261(5)
H44B H 0.39540 -0.24330 0.45200
C58B C 0.1656(7) -0.2492(8) 0.4102(6)
C59* C 1.3604(6) 0.2673(7) 0.6130(4)
C60* C 1.3025(5) 0.2708(6) 0.6190(4)
C61* C 1.2796(5) 0.3460(6) 0.6275(4)
H45* H 1.30120 0.39840 0.62960
C62* C 1.2280(6) 0.3455(6) 0.6329(4)
H46* H 1.21480 0.39810 0.63850
C63* C 1.1927(5) 0.2718(6) 0.6308(4)
C64* C 1.2139(5) 0.1944(6) 0.6227(4)
H47* H 1.19120 0.14310 0.62060
C65* C 1.2687(6) 0.1929(6) 0.6177(4)
H48* H 1.28360 0.14020 0.61360
C66* C 1.1300(5) 0.2739(7) 0.6334(4)
C67C C 1.1219(6) 0.2450(6) 0.7550(4)
C68C C 1.1795(6) 0.2407(6) 0.8139(5)
C69C C 1.1555(6) 0.2327(6) 0.8414(5)
H49C H 1.10400 0.22830 0.82380
C70C C 1.2560(6) 0.2502(6) 0.8391(5)
H50C H 1.27180 0.25800 0.82030
C71* C -0.0009(7) 0.4423(8) 0.6433(6)
C72* C 0.0113(6) 0.5402(7) 0.6466(5)
C73* C 0.0215(9) 0.5831(10) 0.6874(6)
H51* H 0.01740 0.55320 0.70920
C74* C 0.0379(8) 0.6714(9) 0.6942(6)
H52* H 0.04030 0.70020 0.71920
C75* C 0.0507(7) 0.7183(8) 0.6662(5)
C76* C 0.0386(7) 0.671(1) 0.6276(5)
H53* H 0.04270 0.70040 0.60560
C77* C 0.0207(8) 0.5828(9) 0.6175(5)
H54* H 0.01570 0.55520 0.59120
C78* C 0.0715(8) 0.807(1) 0.6747(7)
#END
