
#######################################################################
#
#                 Cambridge Crystallographic Data Centre
#                                CCDC
#
#######################################################################
#
# If this CIF has been generated from an entry in the Cambridge
# Structural Database, then it will include bibliographic, chemical,
# crystal, experimental, refinement or atomic coordinate data resulting
# from the CCDC's data processing and validation procedures.
#
#######################################################################

data_CSD_CIF_ZEDVOV
_audit_creation_date 2013-04-04
_audit_creation_method CSD-ConQuest-V1
_database_code_CSD ZEDVOV
_database_code_depnum_ccdc_archive 'CCDC 824439'
_chemical_formula_sum 'C156 H200 N20 Nd4 O82'
_chemical_formula_moiety
;
(C72 H52 Nd4 O44 6-)n,2n(C38 H38 N10 4+),n(C8 H4 O4 2-),34n(H2 O1)
;
_journal_coden_Cambridge 182
_journal_volume 48
_journal_year 2012
_journal_page_first 10186
_journal_name_full 'Chem.Commun. '
loop_
_publ_author_name
"Han-Yuan Gong"
"B.M.Rambo"
"C.Nelson"
"V.M.Lynch"
"Xiaoyang Zhu"
"J.L.Sessler"
_chemical_name_systematic
;
catena((3)bis(cyclo(bis(2,6-bis(1H-imidazol-1-yl)pyridine)))-nonakis(\m~2~-ter
ephthalato)-octaaqua-tetra-neodymium(iii) rotaxane terephthalate hydrate)
;
_cell_volume   4817.567
_exptl_crystal_colour 'colorless'
_exptl_crystal_density_diffrn 1.46
_exptl_crystal_description 'prism'
_diffrn_ambient_temperature 100
_refine_special_details
;
O1WA and O20W disordered over two sites with occupancies 0.50:0.50; O1WB and 
O20W disordered over two sites with occupancies 0.50:0.50.
;
#These two values have been output from a single CSD field.
_refine_ls_R_factor_gt 0.0985
_refine_ls_wR_factor_gt 0.0985
_symmetry_cell_setting triclinic
_symmetry_space_group_name_H-M 'P -1'
_symmetry_Int_Tables_number 2
loop_
_symmetry_equiv_pos_site_id
_symmetry_equiv_pos_as_xyz
1 x,y,z
2 -x,-y,-z
_cell_length_a 11.649(2)
_cell_length_b 16.833(3)
_cell_length_c 25.515(5)
_cell_angle_alpha 99.17(3)
_cell_angle_beta 101.55(3)
_cell_angle_gamma 93.41(3)
_cell_formula_units_Z 1
loop_
_atom_type_symbol
_atom_type_radius_bond
C 0.68
H 0.23
N 0.68
Nd 1.82
O 0.68
loop_
_atom_site_label
_atom_site_type_symbol
_atom_site_fract_x
_atom_site_fract_y
_atom_site_fract_z
Nd1 Nd 1.07263(5) 0.79280(3) 0.89581(2)
Nd2 Nd 1.40371(5) 0.19700(3) 0.69294(2)
C1 C 0.7464(11) 0.7559(7) 0.6519(4)
H1 H 0.76610 0.74650 0.68740
C2 C 0.7499(14) 0.7601(9) 0.5667(5)
H2 H 0.77350 0.75230 0.53370
C3 C 0.6573(14) 0.8013(9) 0.5779(5)
H3 H 0.60690 0.82700 0.55430
C4 C 0.5722(10) 0.8303(7) 0.6625(4)
C5 C 0.4897(11) 0.8846(7) 0.6431(5)
H4 H 0.48730 0.89990 0.60950
C6 C 0.414(1) 0.9135(7) 0.6753(5)
H5 H 0.36130 0.95000 0.66420
C7 C 0.4177(10) 0.8872(7) 0.7250(5)
H6 H 0.36830 0.90580 0.74780
C8 C 0.4997(9) 0.8314(6) 0.7389(4)
C9 C 0.6089(10) 0.7679(6) 0.8139(4)
H7 H 0.67680 0.76110 0.80050
C10 C 0.4296(10) 0.8021(7) 0.8240(4)
H8 H 0.35620 0.82210 0.81800
C11 C 0.4777(11) 0.7664(7) 0.8663(5)
H9 H 0.44290 0.75760 0.89490
C12 C 0.6714(10) 0.7029(6) 0.8960(4)
H10 H 0.67940 0.73020 0.93320
H11 H 0.74840 0.70690 0.88710
C13 C 0.6279(10) 0.6079(7) 0.8920(4)
C14 C 0.6746(14) 0.5680(7) 0.9350(5)
H12 H 0.72810 0.59690 0.96500
C15 C 0.6406(15) 0.4815(8) 0.9337(5)
H13 H 0.67130 0.45770 0.96330
C16 C 0.5639(10) 0.4350(7) 0.8892(4)
C17 C 0.5163(10) 0.4744(6) 0.8470(4)
H14 H 0.46270 0.44540 0.81710
C18 C 0.5491(10) 0.5621(7) 0.8485(4)
H15 H 0.51560 0.58630 0.81950
C19 C 0.5253(10) 0.3402(7) 0.8884(5)
H16 H 0.48200 0.33620 0.91680
H17 H 0.47320 0.31780 0.85380
C20 C 0.691(1) 0.2691(7) 0.8588(4)
H18 H 0.67430 0.27860 0.82330
C21 C 0.681(1) 0.2641(6) 0.9443(4)
H19 H 0.65430 0.27070 0.97660
C22 C 0.7758(10) 0.2268(7) 0.9351(4)
H20 H 0.82700 0.20330 0.95970
C23 C 0.8669(9) 0.1941(6) 0.8522(4)
C24 C 0.9472(9) 0.1387(7) 0.8728(5)
H21 H 0.95000 0.12580 0.90720
C25 C 1.0187(10) 0.1060(7) 0.8407(5)
H22 H 1.06900 0.06830 0.85220
C26 C 1.0159(10) 0.1293(7) 0.7905(5)
H23 H 1.06560 0.10910 0.76830
C27 C 0.9350(9) 0.1844(6) 0.7745(4)
C28 C 0.8329(10) 0.2540(7) 0.7009(4)
H24 H 0.76450 0.26160 0.71380
C29 C 1.0107(11) 0.2164(7) 0.6925(4)
H25 H 1.08280 0.19480 0.69860
C30 C 0.9665(11) 0.2541(8) 0.6503(4)
H26 H 1.00390 0.26270 0.62250
C31 C 0.7756(12) 0.3190(8) 0.6176(4)
H27 H 0.69790 0.31440 0.62570
H28 H 0.76940 0.29080 0.58070
C32 C 0.8146(11) 0.4120(8) 0.6201(4)
C33 C 0.7575(11) 0.4549(8) 0.5800(5)
H29 H 0.69920 0.42640 0.55180
C34 C 0.7848(11) 0.5409(7) 0.5805(5)
H30 H 0.74280 0.56470 0.55300
C35 C 0.8709(11) 0.5883(8) 0.6205(4)
C36 C 0.9296(12) 0.5470(8) 0.6604(5)
H31 H 0.98940 0.57590 0.68780
C37 C 0.9017(11) 0.4608(8) 0.6613(4)
H32 H 0.94200 0.43790 0.68960
C38 C 0.9058(11) 0.6816(8) 0.6201(5)
H33 H 0.96050 0.70420 0.65390
H34 H 0.94630 0.68520 0.59080
C39 C 1.2947(10) 0.8922(7) 0.9397(5)
C40 C 1.4034(8) 0.9485(6) 0.9698(4)
C41 C 1.4116(8) 1.0369(6) 0.9679(4)
H35 H 1.35120 1.05810 0.94630
C42 C 1.4906(9) 0.9121(7) 1.0016(4)
H36 H 1.48370 0.85690 1.00230
C43 C 1.1811(10) 0.6859(7) 0.7858(5)
C44 C 1.1860(11) 0.5879(7) 0.7783(5)
C45 C 1.2423(13) 0.5464(8) 0.7395(5)
H37 H 1.26980 0.57430 0.71510
C46 C 1.1425(11) 0.5445(7) 0.8139(5)
H38 H 1.10680 0.57110 0.84030
C47 C 1.0406(10) 0.6534(6) 0.9557(4)
C48 C 1.0205(9) 0.5747(6) 0.9793(4)
C49 C 1.0596(10) 0.4975(6) 0.9578(4)
H39 H 1.09870 0.49550 0.92930
C50 C 0.9595(10) 0.5746(7) 1.0214(4)
H40 H 0.93150 0.62200 1.03590
C51 C 0.8319(9) 0.9132(6) 0.9110(4)
C52 C 0.7529(9) 0.9585(6) 0.8724(4)
C53 C 0.7675(10) 0.9547(6) 0.8194(4)
H41 H 0.82110 0.92170 0.80690
C54 C 0.7019(11) 1.0005(7) 0.7843(4)
H42 H 0.71450 0.99830 0.74930
C55 C 0.6169(9) 1.0498(6) 0.8016(4)
C56 C 0.5974(10) 1.0511(6) 0.8540(4)
H43 H 0.54010 1.08140 0.86560
C57 C 0.6654(9) 1.0061(6) 0.8898(4)
H44 H 0.65260 1.00770 0.92480
C58 C 0.5471(10) 1.0996(6) 0.7634(4)
C59 C 0.8582(9) 0.6737(7) 0.7929(4)
C60 C 0.7836(9) 0.5900(6) 0.7720(4)
C61 C 0.6846(9) 0.5851(6) 0.7303(4)
H45 H 0.66340 0.63010 0.71490
C62 C 0.6158(10) 0.5079(6) 0.7116(4)
H46 H 0.54990 0.50460 0.68360
C63 C 0.6425(9) 0.4350(6) 0.7337(4)
C64 C 0.7434(9) 0.4417(6) 0.7751(4)
H47 H 0.76560 0.39670 0.79020
C65 C 0.8126(8) 0.5181(6) 0.7944(4)
H48 H 0.87870 0.52150 0.82230
C66 C 0.5644(9) 0.3542(7) 0.7159(4)
C67 C 1.2413(11) 0.3230(6) 0.7768(5)
C68 C 1.2179(10) 0.4147(7) 0.7731(5)
C69 C 1.1527(12) 0.4575(8) 0.8098(6)
H49 H 1.11650 0.42890 0.83130
C70 C 1.2585(11) 0.4581(7) 0.7369(5)
H50 H 1.29600 0.43200 0.71110
C71 C 1.4489(16) 0.1034(7) 0.5945(5)
C72 C 1.4763(17) 0.0504(8) 0.5451(4)
C73 C 1.5724(17) 0.0743(7) 0.5253(5)
H51 H 1.61890 0.12220 0.54130
C74 C 1.4022(16) -0.0243(7) 0.5196(4)
H52 H 1.33740 -0.03890 0.53340
C75 C 0.0696(12) 0.3447(8) 0.5402(5)
C76 C 0.0328(9) 0.4253(7) 0.5200(4)
C77 C 0.0909(10) 0.5049(7) 0.5443(4)
H53 H 0.15160 0.50940 0.57480
C78 C -0.0598(10) 0.4229(7) 0.4760(4)
H54 H -0.10240 0.37380 0.45940
O1 O 1.0737(6) 0.8974(4) 0.9868(3)
O2 O 1.2190(7) 0.9192(4) 0.9037(3)
O3 O 0.3070(17) 1.1776(13) 0.882(1)
O4 O -0.192(2) 0.1836(16) 0.4934(17)
O5 O 1.0280(8) 0.8470(5) 0.8033(3)
O6 O 1.2753(7) 0.8173(4) 0.9507(3)
O7 O 1.1875(7) 0.7245(5) 0.8360(3)
O8 O 1.2373(8) 0.0884(6) 0.7023(5)
O9 O 1.2400(9) 0.2208(5) 0.6205(4)
O10 O 1.1698(8) 0.7244(5) 0.7457(3)
O11 O 0.9779(7) 0.7154(4) 0.9619(3)
O12 O 1.2291(13) 0.6934(8) 0.6485(6)
O13 O 0.3799(8) 0.4336(5) 0.5952(3)
O14 O 1.1237(6) 0.6579(4) 0.9298(3)
O15 O 0.8853(7) 0.8543(4) 0.8900(3)
O16 O 0.283(2) 0.3890(15) 0.9236(11)
O17 O 0.4904(9) 0.2954(5) 0.5434(3)
O18 O 0.8412(6) 0.9380(4) 0.9618(3)
O19 O 1.3423(11) 0.5932(11) 0.9351(6)
O20 O 0.5633(8) 1.0967(5) 0.7157(3)
O21 O 0.4712(7) 1.1462(5) 0.7806(3)
O22 O 0.9104(15) 0.9279(7) 0.6949(6)
O23 O 0.9369(6) 0.6802(4) 0.8364(3)
O24 O 0.1034(16) 0.1175(8) 0.5260(5)
O25 O 0.8398(6) 0.7354(5) 0.7666(3)
O26 O 0.6234(10) 0.2734(7) 0.4642(4)
O27 O 0.5910(6) 0.2896(4) 0.7392(3)
O28 O 0.4167(11) 0.6239(6) 0.6144(5)
O29 O 0.4733(6) 0.3469(4) 0.6786(3)
O30 O 0.8283(8) 0.8040(5) 1.0222(3)
O31 O 1.3060(7) 0.2889(5) 0.7466(3)
O32 O 1.2644(9) 0.9945(10) 0.8154(4)
O33 O 1.2029(9) 0.2898(6) 0.8118(4)
O34 O 0.1329(17) -0.0442(11) 0.7180(8)
O35 O 1.5057(9) 0.1759(4) 0.6145(3)
O36 O 1.5194(15) 0.6928(10) 0.9888(7)
O37 O 1.3699(9) 0.0740(5) 0.6161(3)
O38 O 0.0138(9) 0.2733(6) 0.5169(4)
O39 O 0.1560(8) 0.3529(5) 0.5796(3)
O40 O 0.108(3) -0.0225(19) 0.4347(6)
O41 O 0.7541(12) 1.0472(9) 0.6540(5)
O42 O 1.645(3) 0.750(2) 1.0499(12)
O43 O -0.079(3) -0.038(2) 0.4069(10)
N1 N 0.8029(9) 0.7321(6) 0.6136(4)
N2 N 0.6534(8) 0.7970(6) 0.6317(3)
N3 N 0.5763(8) 0.8027(5) 0.7098(3)
N4 N 0.5142(8) 0.8027(5) 0.7904(3)
N5 N 0.5895(8) 0.7451(5) 0.8594(3)
N6 N 0.6297(8) 0.2911(5) 0.8968(3)
N7 N 0.7829(8) 0.2300(5) 0.8816(3)
N8 N 0.8625(7) 0.2196(5) 0.8042(3)
N9 N 0.9274(8) 0.2168(5) 0.7244(3)
N10 N 0.8572(8) 0.2773(6) 0.6556(3)
O44? O 0.1038(14) -0.0548(9) 0.6338(6)
Nd1A Nd 1.92737(5) 1.20720(3) 1.10419(2)
Nd1A* Nd 0.92737(5) 0.20720(3) 1.10419(2)
Nd1* Nd 2.07263(5) -0.20720(3) 0.89581(2)
Nd1** Nd 2.07263(5) 0.79280(3) 0.89581(2)
Nd2* Nd 0.40371(5) 1.19700(3) 0.69294(2)
Nd2** Nd 0.40371(5) 0.19700(3) 0.69294(2)
Nd2A Nd 1.59629(5) -0.19700(3) 0.30706(2)
Nd2A* Nd 1.59629(5) 1.80300(3) 1.30706(2)
C39A C 1.7053(10) 1.1078(7) 1.0603(5)
C40A C 1.5966(8) 1.0515(6) 1.0302(4)
C41A C 1.5884(8) 0.9631(6) 1.0321(4)
H35A H 1.64880 0.94190 1.05370
C42A C 1.5094(9) 1.0879(7) 0.9984(4)
H36A H 1.51630 1.14310 0.99770
C43A C 1.8189(10) 1.3141(7) 1.2142(5)
C44A C 1.8140(11) 1.4121(7) 1.2217(5)
C45A C 1.7577(13) 1.4536(8) 1.2605(5)
H37A H 1.73020 1.42570 1.28490
C46A C 1.8575(11) 1.4555(7) 1.1861(5)
H38A H 1.89320 1.42890 1.15970
C47A C 0.9594(10) 0.3466(6) 1.0443(4)
C48A C 0.9795(9) 0.4253(6) 1.0207(4)
C49A C 0.9404(10) 0.5025(6) 1.0422(4)
H39A H 0.90130 0.50450 1.07070
C50A C 1.0405(10) 0.4254(7) 0.9786(4)
H40A H 1.06850 0.37800 0.96410
C51* C 1.8319(9) -0.0868(6) 0.9110(4)
C52* C 1.7529(9) -0.0415(6) 0.8724(4)
C53* C 1.7675(10) -0.0453(6) 0.8194(4)
H41* H 1.82110 -0.07830 0.80690
C54* C 1.7019(11) 0.0005(7) 0.7843(4)
H42* H 1.71450 -0.00170 0.74930
C55* C 1.6169(9) 0.0498(6) 0.8016(4)
C56* C 1.5974(10) 0.0511(6) 0.8540(4)
H43* H 1.54010 0.08140 0.86560
C57* C 1.6654(9) 0.0061(6) 0.8898(4)
H44* H 1.65260 0.00770 0.92480
C58* C 1.5471(10) 0.0996(6) 0.7634(4)
C59* C 1.8582(9) 0.6737(7) 0.7929(4)
C60* C 1.7836(9) 0.5900(6) 0.7720(4)
C61* C 1.6846(9) 0.5851(6) 0.7303(4)
H45* H 1.66340 0.63010 0.71490
C62* C 1.6158(10) 0.5079(6) 0.7116(4)
H46* H 1.54990 0.50460 0.68360
C63* C 1.6425(9) 0.4350(6) 0.7337(4)
C64* C 1.7434(9) 0.4417(6) 0.7751(4)
H47* H 1.76560 0.39670 0.79020
C65* C 1.8126(8) 0.5181(6) 0.7944(4)
H48* H 1.87870 0.52150 0.82230
C66* C 1.5644(9) 0.3542(7) 0.7159(4)
C67A C 1.7587(11) 1.6770(6) 1.2232(5)
C68A C 1.7821(10) 1.5853(7) 1.2269(5)
C69A C 1.8473(12) 1.5425(8) 1.1902(6)
H49A H 1.88350 1.57110 1.16870
C70A C 1.7415(11) 1.5419(7) 1.2631(5)
H50A H 1.70400 1.56800 1.28890
C71A C 1.5511(16) -0.1034(7) 0.4055(5)
C72A C 1.5237(17) -0.0504(8) 0.4549(4)
C73A C 1.4276(17) -0.0743(7) 0.4747(5)
H51A H 1.38110 -0.12220 0.45870
C74A C 1.5978(16) 0.0243(7) 0.4804(4)
H52A H 1.66260 0.03890 0.46660
C75A C -0.0696(12) 0.6553(8) 0.4598(5)
C76A C -0.0328(9) 0.5747(7) 0.4800(4)
C77A C -0.0909(10) 0.4951(7) 0.4557(4)
H53A H -0.15160 0.49060 0.42520
C78A C 0.0598(10) 0.5771(7) 0.5240(4)
H54A H 0.10240 0.62620 0.54060
O1A O 1.9263(6) 1.1026(4) 1.0132(3)
O2A O 1.7810(7) 1.0808(4) 1.0963(3)
O5A O 1.9720(8) 1.1530(5) 1.1967(3)
O6A O 1.7247(7) 1.1827(4) 1.0493(3)
O7A O 1.8125(7) 1.2755(5) 1.1640(3)
O8* O 0.2373(8) 1.0884(6) 0.7023(5)
O9* O 0.2400(9) 1.2208(5) 0.6205(4)
O10A O 1.8302(8) 1.2756(5) 1.2543(3)
O11A O 1.0221(7) 0.2846(4) 1.0381(3)
O11A* O 2.0221(7) 1.2846(4) 1.0381(3)
O14A O 0.8763(6) 0.3421(4) 1.0702(3)
O14A* O 1.8763(6) 1.3421(4) 1.0702(3)
O15* O 1.8853(7) -0.1457(4) 0.8900(3)
O15A O 2.1147(7) 1.1457(4) 1.1100(3)
O18* O 1.8412(6) -0.0620(4) 0.9618(3)
O20* O 1.5633(8) 0.0967(5) 0.7157(3)
O21* O 1.4712(7) 0.1462(5) 0.7806(3)
O23* O 1.9369(6) 0.6802(4) 0.8364(3)
O23A O 2.0631(6) 1.3198(4) 1.1636(3)
O25* O 1.8398(6) 0.7354(5) 0.7666(3)
O27* O 1.5910(6) 0.2896(4) 0.7392(3)
O27** O 0.5910(6) 1.2896(4) 0.7392(3)
O29* O 1.4733(6) 0.3469(4) 0.6786(3)
O29** O 0.4733(6) 1.3469(4) 0.6786(3)
O31A O 1.6940(7) 1.7111(5) 1.2534(3)
O31* O 0.3060(7) 1.2889(5) 0.7466(3)
O33A O 1.7971(9) 1.7102(6) 1.1882(4)
O35A O 1.4943(9) -0.1759(4) 0.3855(3)
O35* O 0.5057(9) 1.1759(4) 0.6145(3)
O37A O 1.6301(9) -0.0740(5) 0.3839(3)
O37* O 0.3699(9) 1.0740(5) 0.6161(3)
O38A O -0.0138(9) 0.7267(6) 0.4831(4)
O39A O -0.1560(8) 0.6471(5) 0.4204(3)
#END
