
#######################################################################
#
#                 Cambridge Crystallographic Data Centre
#                                CCDC
#
#######################################################################
#
# If this CIF has been generated from an entry in the Cambridge
# Structural Database, then it will include bibliographic, chemical,
# crystal, experimental, refinement or atomic coordinate data resulting
# from the CCDC's data processing and validation procedures.
#
#######################################################################

data_CSD_CIF_ZEDVUB
_audit_creation_date 2013-04-04
_audit_creation_method CSD-ConQuest-V1
_database_code_CSD ZEDVUB
_database_code_depnum_ccdc_archive 'CCDC 881834'
_chemical_formula_sum 'C162 H188 N22 O75 Sm4'
_chemical_formula_moiety
;
(C80 H48 O44 Sm4 8-)n,2n(C38 H34 N10 4+),2n(C3 H7 N1 O1),29n(H2 O1)
;
_journal_coden_Cambridge 182
_journal_volume 48
_journal_year 2012
_journal_page_first 10186
_journal_name_full 'Chem.Commun. '
loop_
_publ_author_name
"Han-Yuan Gong"
"B.M.Rambo"
"C.Nelson"
"V.M.Lynch"
"Xiaoyang Zhu"
"J.L.Sessler"
_chemical_name_systematic
;
catena((3)bis(cyclo(bis(2,6-bis(1H-imidazol-1-yl)pyridine)))-octakis(\m~2~-ter
ephthalato)-tetraaqua-tetra-samarium(iii) rotaxane dimethylformamide solvate 
nonacosahydrate)
;
_cell_volume   8900.142
_exptl_crystal_colour 'colorless'
_exptl_crystal_density_diffrn 1.584
_exptl_crystal_description 'prism'
_diffrn_ambient_temperature 100
_refine_special_details
;
The N,N-dimethylformamide solvent and some water molecules are disordered.

;
#These two values have been output from a single CSD field.
_refine_ls_R_factor_gt 0.0664
_refine_ls_wR_factor_gt 0.0664
_symmetry_cell_setting monoclinic
_symmetry_space_group_name_H-M 'P 21/n'
_symmetry_Int_Tables_number 14
loop_
_symmetry_equiv_pos_site_id
_symmetry_equiv_pos_as_xyz
1 x,y,z
2 1/2-x,1/2+y,1/2-z
3 -x,-y,-z
4 -1/2+x,-1/2-y,-1/2+z
_cell_length_a 24.003(5)
_cell_length_b 11.365(2)
_cell_length_c 32.883(7)
_cell_angle_alpha 90
_cell_angle_beta 97.17(3)
_cell_angle_gamma 90
_cell_formula_units_Z 2
loop_
_atom_type_symbol
_atom_type_radius_bond
C 0.68
H 0.23
N 0.68
O 0.68
Sm 1.71
loop_
_atom_site_label
_atom_site_type_symbol
_atom_site_fract_x
_atom_site_fract_y
_atom_site_fract_z
Sm1 Sm 0.587905(16) 0.75991(4) 0.372725(11)
Sm2 Sm 0.871550(15) 1.26873(4) 0.601540(11)
O1 O 0.5891(3) 0.8794(6) 0.31157(17)
O2 O 0.4995(2) 0.7127(5) 0.32325(17)
O3 O 0.5754(2) 0.6033(6) 0.31958(16)
O4 O 0.8266(2) 1.4143(5) 0.63945(16)
O5 O 0.5350(2) 0.5927(5) 0.39948(15)
O6 O 0.3359(7) 1.3566(16) 0.4211(5)
O7 O 0.5931(2) 0.6866(5) 0.44603(15)
O8 O 0.2785(7) 1.3042(12) 0.3782(4)
O9 O 0.5240(2) 0.8827(5) 0.39905(15)
O10 O 0.7611(4) 0.0576(14) 0.6757(3)
O11 O 0.4629(2) 1.0314(5) 0.38794(15)
O12 O 0.5944(4) 0.1834(12) 0.1927(3)
O13 O 0.6516(3) 0.9062(6) 0.39608(18)
O14 O 0.6850(4) 0.9857(14) 0.3001(3)
O15 O 0.7146(3) 1.0351(6) 0.37871(18)
O16 O 0.6707(5) 0.2293(16) 0.2609(4)
O17 O 0.6795(4) 0.1139(10) 0.7216(3)
O18 O 0.7841(2) 1.1745(6) 0.58657(18)
O19 O 0.7122(2) 1.0670(6) 0.60045(19)
O20 O 0.7306(4) 0.7271(14) 0.2778(3)
O21 O 0.6737(2) 0.6649(6) 0.37347(16)
O22 O 0.7019(4) -0.037(1) 0.7865(2)
O23 O 0.7475(2) 0.5866(6) 0.35076(18)
O24 O 0.6597(3) 0.4429(9) 0.3060(3)
O25 O 0.4255(3) 0.8974(7) 0.3198(2)
O26 O 0.8276(2) 0.4013(5) 0.55322(16)
O27 O 0.9951(3) 0.4483(6) 0.68642(17)
O28 O 0.7810(2) 0.5506(5) 0.57655(16)
O29 O 0.4296(3) 0.2464(5) 0.16897(18)
O30 O 0.6442(2) 0.8685(6) 0.61011(19)
O31 O 0.3646(2) 0.3806(6) 0.15686(17)
O32 O 0.4974(3) -0.0297(6) 0.26403(19)
O33 O 0.9449(2) 1.1130(5) 0.59197(15)
O34 O 0.7750(12) -0.179(3) 0.6788(9)
O35 O 0.8905(2) 1.1786(5) 0.53802(15)
O36 O 0.7835(6) -0.1707(14) 0.7577(5)
O37 O 0.9472(2) 1.3900(5) 0.59303(15)
O38 O 1.0039(3) 1.5385(6) 0.61141(16)
O39 O 1.1309(5) 0.8144(12) 0.6007(3)
N1 N 0.3707(3) 0.6639(6) 0.3969(2)
N2 N 0.3661(3) 0.5197(6) 0.3546(2)
N3 N 0.4368(3) 0.3864(6) 0.34558(19)
N4 N 0.5141(3) 0.2688(6) 0.3413(2)
N5 N 0.5971(3) 0.2920(6) 0.3737(2)
N6 N 0.8823(3) -0.1852(7) 0.6160(3)
N7 N 0.9596(3) -0.1993(7) 0.6568(2)
N8 N 1.0368(3) -0.0789(6) 0.6591(2)
N9 N 1.1107(3) 0.0476(7) 0.6555(2)
N10 N 1.1159(3) 0.1880(7) 0.6124(3)
N11 N 1.1565(5) 0.6729(13) 0.6490(4)
C1 C 0.3826(3) 0.7214(7) 0.4708(3)
C2 C 0.3940(3) 0.7509(7) 0.4276(3)
H1 H 0.37810 0.82750 0.42010
H2 H 0.43430 0.75600 0.42720
C3 C 0.4011(3) 0.5851(8) 0.3797(2)
H3 H 0.44000 0.57710 0.38430
C4 C 0.3148(3) 0.6484(9) 0.3813(3)
H4 H 0.28450 0.69230 0.38810
C5 C 0.3122(3) 0.5597(8) 0.3551(3)
H5 H 0.28000 0.53010 0.33980
C6 C 0.3841(3) 0.4157(7) 0.3336(2)
C7 C 0.3482(3) 0.3564(8) 0.3048(2)
H6 H 0.31140 0.38140 0.29750
C8 C 0.3690(4) 0.2593(8) 0.2874(3)
H7 H 0.34620 0.21630 0.26780
C9 C 0.4244(4) 0.2246(8) 0.2992(3)
H8 H 0.43950 0.15820 0.28810
C10 C 0.4555(3) 0.2928(7) 0.3277(2)
C11 C 0.5469(3) 0.3413(8) 0.3661(2)
H9 H 0.53620 0.41320 0.37630
C12 C 0.5446(4) 0.1715(8) 0.3323(3)
H10 H 0.53190 0.10880 0.31550
C13 C 0.5968(4) 0.1852(8) 0.3528(3)
H11 H 0.62670 0.13320 0.35290
C14 C 0.6428(3) 0.3398(9) 0.4033(3)
H12 H 0.64590 0.42390 0.39910
H13 H 0.67800 0.30370 0.39870
C15 C 0.6323(3) 0.3172(7) 0.4471(2)
C16 C 0.6086(3) 0.2147(7) 0.4588(3)
H14 H 0.59730 0.15760 0.43920
C17 C 0.3987(3) 0.8048(7) 0.5011(2)
H15 H 0.41470 0.87520 0.49390
C18 C 0.6477(3) 0.4035(7) 0.4767(2)
H16 H 0.66270 0.47460 0.46920
C19 C 0.3595(3) 0.6176(8) 0.4826(3)
H17 H 0.34850 0.56050 0.46300
C20 C 0.8415(3) -0.1437(9) 0.5818(3)
H18 H 0.83820 -0.05880 0.58350
H19 H 0.80500 -0.17730 0.58450
C21 C 0.9302(3) -0.1324(8) 0.6280(3)
H20 H 0.94190 -0.06090 0.61820
C22 C 0.8795(5) -0.2885(9) 0.6364(4)
H21 H 0.85020 -0.34260 0.63290
C23 C 0.9279(4) -0.2983(9) 0.6631(4)
H22 H 0.93750 -0.35890 0.68170
C24 C 1.0141(4) -0.1706(8) 0.6757(3)
C25 C 1.0413(4) -0.2354(9) 0.7083(3)
H23 H 1.02410 -0.30020 0.71860
C26 C 1.0943(4) -0.2009(11) 0.7247(3)
H24 H 1.11340 -0.24200 0.74660
C27 C 1.1195(4) -0.1030(9) 0.7081(3)
H25 H 1.15490 -0.07590 0.71870
C28 C 1.0889(3) -0.0508(8) 0.6757(2)
C29 C 1.0814(3) 0.1158(8) 0.6271(3)
H26 H 1.04290 0.11200 0.61920
C30 C 1.1666(4) 0.0836(12) 0.6590(5)
H27 H 1.19610 0.05350 0.67700
C31 C 1.1699(5) 0.1699(12) 0.6315(5)
H28 H 1.20210 0.20970 0.62630
C32 C 1.0998(5) 0.2731(10) 0.5797(4)
H29 H 1.11740 0.34810 0.58720
H30 H 1.05940 0.28450 0.57690
C33 C 1.1167(4) 0.2335(8) 0.5379(3)
C34 C 1.1039(4) 0.3122(8) 0.5056(3)
H31 H 1.08700 0.38380 0.51020
C35 C 1.1163(4) 0.2842(8) 0.4661(3)
H32 H 1.10750 0.33710 0.44470
C36 C 0.8581(3) -0.1763(8) 0.5410(3)
C37 C 0.8460(4) -0.0991(9) 0.5079(3)
H33 H 0.82930 -0.02700 0.51210
C38 C 1.1417(4) 0.1275(9) 0.5310(4)
H34 H 1.15040 0.07480 0.55250
C39 C 0.5238(3) 0.6275(7) 0.3074(2)
C40 C 0.4932(3) 0.5537(8) 0.2744(2)
C41 C 0.4383(3) 0.5811(8) 0.2583(2)
H35 H 0.42010 0.64480 0.26870
C42 C 0.5197(3) 0.4560(7) 0.2596(2)
H36 H 0.55620 0.43690 0.27060
C43 C 0.5541(3) 0.6149(7) 0.4371(2)
C44 C 0.5262(3) 0.5551(7) 0.4694(2)
C45 C 0.5373(3) 0.5926(7) 0.5102(2)
H37 H 0.56260 0.65360 0.51710
C46 C 0.4889(3) 0.4603(7) 0.4601(2)
H38 H 0.48210 0.43320 0.43320
C47 C 0.4951(3) 0.9666(7) 0.4116(2)
C48 C 0.4989(3) 0.9855(7) 0.4573(2)
C49 C 0.5306(3) 0.9084(7) 0.4847(2)
H39 H 0.55080 0.84730 0.47470
C50 C 0.4684(3) 1.0756(7) 0.4733(2)
H40 H 0.44700 1.12610 0.45540
C51 C 0.6911(3) 0.9821(8) 0.4042(3)
C52 C 0.7053(3) 1.0106(7) 0.4491(2)
C53 C 0.6835(3) 0.9479(7) 0.4797(3)
H41 H 0.65970 0.88460 0.47260
C54 C 0.6962(3) 0.9773(7) 0.5200(3)
H42 H 0.68160 0.93270 0.53990
C55 C 0.7309(3) 1.0737(7) 0.5319(3)
C56 C 0.7531(3) 1.1367(7) 0.5017(2)
H43 H 0.77640 1.20050 0.50910
C57 C 0.7412(3) 1.1067(8) 0.4605(3)
H44 H 0.75680 1.14950 0.44060
C58 C 0.7434(3) 1.1080(7) 0.5755(3)
C59 C 0.7198(3) 0.6147(7) 0.3793(2)
C60 C 0.7436(3) 0.5888(7) 0.4225(2)
C61 C 0.7786(3) 0.4913(8) 0.4318(2)
H45 H 0.79040 0.44700 0.41070
C62 C 0.7961(3) 0.4599(8) 0.4725(2)
H46 H 0.81830 0.39340 0.47830
C63 C 0.7803(3) 0.5283(7) 0.5044(2)
C64 C 0.7477(3) 0.6301(7) 0.4951(2)
H47 H 0.73830 0.67820 0.51610
C65 C 0.7297(3) 0.6586(7) 0.4544(2)
H48 H 0.70800 0.72560 0.44840
C66 C 0.7971(3) 0.4921(7) 0.5479(2)
C67 C 0.4096(3) 0.3435(8) 0.1780(2)
C68 C 0.4375(3) 0.4175(8) 0.2121(2)
C69 C 0.4107(3) 0.5139(8) 0.2271(2)
H49 H 0.37420 0.53300 0.21610
C70 C 0.4916(3) 0.3872(8) 0.2286(2)
H50 H 0.50900 0.32150 0.21900
C71 C 0.9320(3) 1.1201(7) 0.5536(2)
C72 C 0.9673(3) 1.0570(7) 0.5262(2)
C73 C 1.0073(3) 0.9743(7) 0.5417(2)
H51 H 1.01210 0.95670 0.56950
C74 C 0.9599(3) 1.0818(7) 0.4845(2)
H52 H 0.93300 1.13620 0.47410
C75 C 0.9798(3) 1.4697(7) 0.5845(2)
C76 C 0.9896(3) 1.4853(7) 0.5412(2)
C77 C 0.9646(3) 1.4101(7) 0.5105(2)
H53 H 0.94120 1.34970 0.51720
C78 C 1.0255(3) 1.5750(7) 0.5302(2)
H54 H 1.04290 1.62490 0.55030
C79 C 1.1174(6) 0.7166(14) 0.6200(5)
H55 H 1.08260 0.68050 0.61360
C80 C 1.2119(5) 0.7283(15) 0.6576(5)
H56 H 1.21200 0.80140 0.64300
H57 H 1.23990 0.67680 0.64890
H58 H 1.22010 0.74290 0.68650
C81 C 1.1543(7) 0.5627(13) 0.6736(5)
H59 H 1.11790 0.52730 0.66770
H60 H 1.16130 0.58130 0.70230
H61 H 1.18240 0.50880 0.66670
Sm1B Sm 0.412095(16) 0.24009(4) 0.627275(11)
Sm1B* Sm 0.412095(16) 1.24009(4) 0.627275(11)
Sm1* Sm 0.587905(16) 1.75991(4) 0.372725(11)
Sm1C Sm 1.087905(16) 0.74009(4) 0.872725(11)
Sm2* Sm 0.871550(15) 0.26873(4) 0.601540(11)
Sm2C Sm 0.371550(15) 0.23127(4) 0.101540(11)
Sm2B Sm 1.128450(15) 0.73127(4) 0.398460(11)
Sm2B* Sm 1.128450(15) 1.73127(4) 0.398460(11)
Sm2B** Sm 0.128450(15) -0.26873(4) 0.398460(11)
O1B O 0.4109(3) 0.1206(6) 0.68843(17)
O2C O 0.9995(2) 0.7873(5) 0.82325(17)
O2B O 0.5005(2) 0.2873(5) 0.67675(17)
O3C O 1.0754(2) 0.8967(6) 0.81958(16)
O3B O 0.4246(2) 0.3967(6) 0.68042(16)
O4* O 0.8266(2) 0.4143(5) 0.63945(16)
O5B O 0.4650(2) 0.4073(5) 0.60052(15)
O7B O 0.4069(2) 0.3134(5) 0.55397(15)
O9B O 0.4760(2) 1.1173(5) 0.60095(15)
O9B* O 0.4760(2) 0.1173(5) 0.60095(15)
O11B O 0.5371(2) 0.9686(5) 0.61206(15)
O13B O 0.3484(3) 0.0938(6) 0.60392(18)
O15B O 0.2854(3) -0.0351(6) 0.62129(18)
O18B O 0.2159(2) -0.1745(6) 0.41343(18)
O18* O 0.7841(2) 0.1745(6) 0.58657(18)
O19B O 0.2878(2) -0.0670(6) 0.39955(19)
O21* O 0.6737(2) 1.6649(6) 0.37347(16)
O21B O 0.3263(2) 0.3351(6) 0.62653(16)
O23* O 0.7475(2) 1.5866(6) 0.35076(18)
O26* O 0.8276(2) 1.4013(5) 0.55322(16)
O28* O 0.7810(2) 1.5506(5) 0.57655(16)
O29C O 0.9296(3) 1.2536(5) 0.66897(18)
O29C* O 0.9296(3) 0.2536(5) 0.66897(18)
O31C O 0.8646(2) 1.1194(6) 0.65686(17)
O31C* O 0.8646(2) 0.1194(6) 0.65686(17)
O33B O 1.0551(2) 0.8870(5) 0.40803(15)
O33* O 0.9449(2) 0.1130(5) 0.59197(15)
O35B O 1.1095(2) 0.8214(5) 0.46198(15)
O35* O 0.8905(2) 0.1786(5) 0.53802(15)
O37B O 1.0528(2) 1.6100(5) 0.40697(15)
O37* O 0.9472(2) 0.3900(5) 0.59303(15)
O38B O 0.9961(3) 1.4615(6) 0.38859(16)
N1B N 0.6293(3) 0.3361(6) 0.6031(2)
N2B N 0.6339(3) 0.4803(6) 0.6454(2)
N3B N 0.5632(3) 0.6136(6) 0.65442(19)
N4B N 0.4859(3) 0.7312(6) 0.6587(2)
N5B N 0.4029(3) 0.7080(6) 0.6263(2)
N6B N 1.1177(3) 0.1852(7) 0.3840(3)
N7B N 1.0404(3) 0.1993(7) 0.3432(2)
N8B N 0.9632(3) 0.0789(6) 0.3409(2)
N9B N 0.8893(3) -0.0476(7) 0.3445(2)
N10B N 0.8841(3) -0.1880(7) 0.3876(3)
C1B C 0.6174(3) 0.2786(7) 0.5292(3)
C2B C 0.6060(3) 0.2491(7) 0.5724(3)
H1B H 0.62190 0.17250 0.57990
H2B H 0.56570 0.24400 0.57280
C3B C 0.5989(3) 0.4149(8) 0.6203(2)
H3B H 0.56000 0.42290 0.61570
C4B C 0.6852(3) 0.3516(9) 0.6187(3)
H4B H 0.71550 0.30770 0.61190
C5B C 0.6878(3) 0.4403(8) 0.6449(3)
H5B H 0.72000 0.46990 0.66020
C6B C 0.6159(3) 0.5843(7) 0.6664(2)
C7B C 0.6518(3) 0.6436(8) 0.6952(2)
H6B H 0.68860 0.61860 0.70250
C8B C 0.6310(4) 0.7407(8) 0.7126(3)
H7B H 0.65380 0.78370 0.73220
C9B C 0.5756(4) 0.7754(8) 0.7008(3)
H8B H 0.56050 0.84180 0.71190
C10B C 0.5445(3) 0.7072(7) 0.6723(2)
C11B C 0.4531(3) 0.6587(8) 0.6339(2)
H9B H 0.46380 0.58680 0.62370
C12B C 0.4554(4) 0.8285(8) 0.6677(3)
H10B H 0.46810 0.89120 0.68450
C13B C 0.4032(4) 0.8148(8) 0.6472(3)
H11B H 0.37330 0.86680 0.64710
C14B C 0.3572(3) 0.6602(9) 0.5967(3)
H12B H 0.35410 0.57610 0.60090
H13B H 0.32200 0.69630 0.60130
C15B C 0.3677(3) 0.6828(7) 0.5529(2)
C16B C 0.3914(3) 0.7853(7) 0.5412(3)
H14B H 0.40270 0.84240 0.56080
C17B C 0.6013(3) 0.1952(7) 0.4989(2)
H15B H 0.58530 0.12480 0.50610
C18B C 0.3523(3) 0.5965(7) 0.5233(2)
H16B H 0.33730 0.52540 0.53080
C19B C 0.6405(3) 0.3824(8) 0.5174(3)
H17B H 0.65150 0.43950 0.53700
C20B C 1.1585(3) 0.1437(9) 0.4182(3)
H18B H 1.16180 0.05880 0.41650
H19B H 1.19500 0.17730 0.41550
C21B C 1.0698(3) 0.1324(8) 0.3720(3)
H20B H 1.05810 0.06090 0.38180
C22B C 1.1205(5) 0.2885(9) 0.3636(4)
H21B H 1.14980 0.34260 0.36710
C23B C 1.0721(4) 0.2983(9) 0.3369(4)
H22B H 1.06250 0.35890 0.31830
C24B C 0.9859(4) 0.1706(8) 0.3243(3)
C25B C 0.9587(4) 0.2354(9) 0.2917(3)
H23B H 0.97590 0.30020 0.28140
C26B C 0.9057(4) 0.2009(11) 0.2753(3)
H24B H 0.88660 0.24200 0.25340
C27B C 0.8805(4) 0.1030(9) 0.2919(3)
H25B H 0.84510 0.07590 0.28130
C28B C 0.9111(3) 0.0508(8) 0.3243(2)
C29B C 0.9186(3) -0.1158(8) 0.3729(3)
H26B H 0.95710 -0.11200 0.38080
C30B C 0.8334(4) -0.0836(12) 0.3410(5)
H27B H 0.80390 -0.05350 0.32300
C31B C 0.8301(5) -0.1699(12) 0.3685(5)
H28B H 0.79790 -0.20970 0.37370
C32B C 0.9002(5) -0.2731(10) 0.4203(4)
H29B H 0.88260 -0.34810 0.41280
H30B H 0.94060 -0.28450 0.42310
C33B C 0.8833(4) -0.2335(8) 0.4621(3)
C34B C 0.8961(4) -0.3122(8) 0.4944(3)
H31B H 0.91300 -0.38380 0.48980
C35B C 0.8837(4) -0.2842(8) 0.5339(3)
H32B H 0.89250 -0.33710 0.55530
C36B C 1.1419(3) 0.1763(8) 0.4590(3)
C37B C 1.1540(4) 0.0991(9) 0.4921(3)
H33B H 1.17070 0.02700 0.48790
C38B C 0.8583(4) -0.1275(9) 0.4690(4)
H34B H 0.84960 -0.07480 0.44750
C39C C 1.0238(3) 0.8725(7) 0.8074(2)
C40C C 0.9932(3) 0.9463(8) 0.7744(2)
C41C C 0.9383(3) 0.9189(8) 0.7583(2)
H35C H 0.92010 0.85520 0.76870
C42C C 1.0197(3) 1.0440(7) 0.7596(2)
H36C H 1.05620 1.06310 0.77060
C43B C 0.4459(3) 0.3851(7) 0.5629(2)
C44B C 0.4738(3) 0.4449(7) 0.5306(2)
C45B C 0.4627(3) 0.4074(7) 0.4898(2)
H37B H 0.43740 0.34640 0.48290
C46B C 0.5111(3) 0.5397(7) 0.5399(2)
H38B H 0.51790 0.56680 0.56680
C47B C 0.5049(3) 1.0334(7) 0.5884(2)
C48B C 0.5011(3) 1.0145(7) 0.5427(2)
C49B C 0.4694(3) 1.0916(7) 0.5153(2)
H39B H 0.44920 1.15270 0.52530
C50B C 0.5316(3) 0.9244(7) 0.5267(2)
H40B H 0.55300 0.87390 0.54460
C51B C 0.3089(3) 0.0179(8) 0.5958(3)
C52B C 0.2947(3) -0.0106(7) 0.5509(2)
C53B C 0.3165(3) 0.0521(7) 0.5203(3)
H41B H 0.34030 0.11540 0.52740
C54B C 0.3038(3) 0.0227(7) 0.4800(3)
H42B H 0.31840 0.06730 0.46010
C55B C 0.2691(3) -0.0737(7) 0.4681(3)
C56B C 0.2469(3) -0.1367(7) 0.4983(2)
H43B H 0.22360 -0.20050 0.49090
C57B C 0.2588(3) -0.1067(8) 0.5395(3)
H44B H 0.24320 -0.14950 0.55940
C58B C 0.2566(3) -0.1080(7) 0.4245(3)
C59* C 0.7198(3) 1.6147(7) 0.3793(2)
C60* C 0.7436(3) 1.5888(7) 0.4225(2)
C61* C 0.7786(3) 1.4913(8) 0.4318(2)
H45* H 0.79040 1.44700 0.41070
C62* C 0.7961(3) 1.4599(8) 0.4725(2)
H46* H 0.81830 1.39340 0.47830
C63* C 0.7803(3) 1.5283(7) 0.5044(2)
C64* C 0.7477(3) 1.6301(7) 0.4951(2)
H47* H 0.73830 1.67820 0.51610
C65* C 0.7297(3) 1.6586(7) 0.4544(2)
H48* H 0.70800 1.72560 0.44840
C66* C 0.7971(3) 1.4921(7) 0.5479(2)
C67C C 0.9096(3) 1.1565(8) 0.6780(2)
C68C C 0.9375(3) 1.0825(8) 0.7121(2)
C69C C 0.9107(3) 0.9861(8) 0.7271(2)
H49C H 0.87420 0.96700 0.71610
C70C C 0.9916(3) 1.1128(8) 0.7286(2)
H50C H 1.00900 1.17850 0.71900
C71B C 1.0680(3) 0.8799(7) 0.4464(2)
C72B C 1.0327(3) 0.9430(7) 0.4738(2)
C73B C 0.9927(3) 1.0257(7) 0.4583(2)
H51B H 0.98790 1.04330 0.43050
C74B C 1.0401(3) 0.9182(7) 0.5155(2)
H52B H 1.06700 0.86380 0.52590
C75B C 1.0202(3) 1.5303(7) 0.4155(2)
C76B C 1.0104(3) 1.5147(7) 0.4588(2)
C77B C 1.0354(3) 1.5899(7) 0.4895(2)
H53B H 1.05880 1.65030 0.48280
C78B C 0.9745(3) 1.4250(7) 0.4698(2)
H54B H 0.95710 1.37510 0.44970
#END
