
#######################################################################
#
#                 Cambridge Crystallographic Data Centre
#                                CCDC
#
#######################################################################
#
# If this CIF has been generated from an entry in the Cambridge
# Structural Database, then it will include bibliographic, chemical,
# crystal, experimental, refinement or atomic coordinate data resulting
# from the CCDC's data processing and validation procedures.
#
#######################################################################

data_CSD_CIF_ZEDWAI
_audit_creation_date 2013-04-04
_audit_creation_method CSD-ConQuest-V1
_database_code_CSD ZEDWAI
_database_code_depnum_ccdc_archive 'CCDC 881835'
_chemical_formula_sum 'C159 H163 N21 O65 Tb4'
_chemical_formula_moiety
;
(C80 H48 O44 Tb4 8-)n,2n(C38 H34 N10 4+),n(C3 H7 N1 O1),20n(H2 O1)
;
_journal_coden_Cambridge 182
_journal_volume 48
_journal_year 2012
_journal_page_first 10186
_journal_name_full 'Chem.Commun. '
loop_
_publ_author_name
"Han-Yuan Gong"
"B.M.Rambo"
"C.Nelson"
"V.M.Lynch"
"Xiaoyang Zhu"
"J.L.Sessler"
_chemical_name_systematic
;
catena((3)bis(cyclo(bis(2,6-bis(1H-imidazol-1-yl)pyridine)))-octakis(\m~2~-ter
ephthalato)-tetraaqua-tetra-terbium(iii) rotaxane dimethylformamide solvate 
icosahydrate)
;
_cell_volume   8815.151
_exptl_crystal_colour 'colorless'
_exptl_crystal_density_diffrn 1.523
_exptl_crystal_description 'prism'
_diffrn_ambient_temperature 153
_refine_special_details
;
O3W and O3WA disordered over two sites with occupancies 0.50:0.50.

;
#These two values have been output from a single CSD field.
_refine_ls_R_factor_gt 0.0774
_refine_ls_wR_factor_gt 0.0774
_symmetry_cell_setting monoclinic
_symmetry_space_group_name_H-M 'P 21/n'
_symmetry_Int_Tables_number 14
loop_
_symmetry_equiv_pos_site_id
_symmetry_equiv_pos_as_xyz
1 x,y,z
2 1/2-x,1/2+y,1/2-z
3 -x,-y,-z
4 -1/2+x,-1/2-y,-1/2+z
_cell_length_a 23.896(5)
_cell_length_b 11.350(2)
_cell_length_c 32.793(7)
_cell_angle_alpha 90
_cell_angle_beta 97.64(3)
_cell_angle_gamma 90
_cell_formula_units_Z 2
loop_
_atom_type_symbol
_atom_type_radius_bond
C 0.68
H 0.23
N 0.68
O 0.68
Tb 1.66
loop_
_atom_site_label
_atom_site_type_symbol
_atom_site_fract_x
_atom_site_fract_y
_atom_site_fract_z
Tb1 Tb 0.58539(3) 0.75897(6) 0.374452(18)
Tb2 Tb 0.87446(3) 1.26576(6) 0.601130(18)
O1 O 0.5870(5) 0.8810(11) 0.3159(4)
O2 O 0.5014(4) 0.7138(9) 0.3230(3)
O3 O 0.5759(4) 0.6102(9) 0.3215(3)
O4 O 0.8327(5) 1.4049(9) 0.6408(3)
O5 O 0.5321(4) 0.5980(8) 0.3989(3)
O6 O 0.3306(13) 1.346(3) 0.4148(11)
O7 O 0.5912(4) 0.6890(9) 0.4462(3)
O8 O 0.7643(8) 0.077(3) 0.6795(7)
O9 O 0.5213(4) 0.8791(9) 0.3989(3)
O10 O 0.6029(13) 0.160(4) 0.2003(17)
O11 O 0.4622(5) 1.0208(10) 0.3884(4)
O12 O 0.6863(9) 0.974(2) 0.3007(6)
O13 O 0.6442(5) 0.8993(11) 0.4021(4)
O14 O 0.668(2) 0.253(4) 0.2622(12)
O15 O 0.7050(6) 1.0247(13) 0.3803(4)
O16 O 0.6831(10) 0.144(4) 0.7266(8)
O17 O 0.7895(4) 1.1779(10) 0.5868(3)
O18 O 0.7268(8) 0.743(2) 0.2805(6)
O19 O 0.7216(6) 1.0701(12) 0.6042(4)
O20 O 0.6897(10) -0.038(2) 0.7823(7)
O21 O 0.6686(4) 0.6689(10) 0.3775(3)
O22 O 0.6630(8) 0.452(2) 0.3059(7)
O23 O 0.7457(5) 0.6093(12) 0.3551(4)
O24 O 0.4212(6) 0.8846(16) 0.3218(5)
O25 O 0.8290(4) 0.3953(9) 0.5543(3)
O26 O 0.9953(6) 0.4447(13) 0.6882(4)
O27 O 0.7845(4) 0.5422(10) 0.5797(3)
O28 O 0.6465(6) 0.8794(13) 0.6153(5)
O29 O 0.4359(5) 0.2525(9) 0.1656(3)
O30 O 0.4941(7) -0.0311(13) 0.2633(5)
O31 O 0.3695(4) 0.3795(11) 0.1568(3)
O32 O 0.7731(18) -0.168(5) 0.6768(17)
O33 O 0.9421(4) 1.1086(9) 0.5911(3)
O34 O 0.7819(14) -0.142(4) 0.7562(10)
O35 O 0.8916(4) 1.1817(9) 0.5370(3)
O36 O 0.9446(4) 1.3855(10) 0.5908(3)
O37 O 1.0024(6) 1.5297(12) 0.6132(4)
O38 O 1.1259(15) 0.786(4) 0.5969(11)
N1 N 0.3675(5) 0.6654(11) 0.3968(4)
N2 N 0.3650(5) 0.5189(11) 0.3537(4)
N3 N 0.4331(5) 0.3892(11) 0.3443(4)
N4 N 0.5110(5) 0.2730(11) 0.3418(4)
N5 N 0.5928(5) 0.2963(11) 0.3723(4)
N6 N 0.8830(6) -0.1855(12) 0.6153(5)
N7 N 0.9601(6) -0.2040(12) 0.6551(4)
N8 N 1.0364(5) -0.0865(12) 0.6572(4)
N9 N 1.1113(6) 0.0378(14) 0.6555(5)
N10 N 1.1166(7) 0.1810(14) 0.6145(6)
N11 N 1.1603(14) 0.662(3) 0.6493(12)
C1 C 0.3824(5) 0.7190(12) 0.4710(5)
C2 C 0.3901(6) 0.7510(13) 0.4265(5)
H1 H 0.37200 0.82620 0.41960
H2 H 0.43010 0.76040 0.42490
C3 C 0.3965(6) 0.5874(14) 0.3767(5)
H3 H 0.43570 0.58450 0.37950
C4 C 0.3149(7) 0.6447(17) 0.3815(7)
H4 H 0.28420 0.68660 0.38870
C5 C 0.3106(7) 0.5560(15) 0.3543(6)
H5 H 0.27790 0.52640 0.33920
C6 C 0.3823(6) 0.4168(14) 0.3331(5)
C7 C 0.3471(6) 0.3611(16) 0.3034(5)
H6 H 0.31070 0.38860 0.29510
C8 C 0.3675(8) 0.2624(17) 0.2859(6)
H7 H 0.34470 0.21920 0.26610
C9 C 0.4225(7) 0.2293(16) 0.2987(5)
H8 H 0.43830 0.16260 0.28830
C10 C 0.4519(7) 0.2982(14) 0.3269(5)
C11 C 0.5433(6) 0.3444(14) 0.3638(5)
H9 H 0.53310 0.41860 0.37230
C12 C 0.5406(7) 0.1745(15) 0.3337(6)
H10 H 0.52690 0.10970 0.31810
C13 C 0.5905(8) 0.1896(16) 0.3517(6)
H11 H 0.62050 0.13770 0.35110
C14 C 0.6393(6) 0.3409(16) 0.4037(6)
H12 H 0.67430 0.30300 0.39920
H13 H 0.64370 0.42490 0.39970
C15 C 0.6292(6) 0.3194(14) 0.4469(5)
C16 C 0.6062(6) 0.2188(14) 0.4583(5)
H14 H 0.59410 0.16130 0.43890
C17 C 0.3993(6) 0.7981(14) 0.5014(6)
H15 H 0.41560 0.86800 0.49410
C18 C 0.6464(7) 0.3981(15) 0.4757(6)
H16 H 0.66240 0.46770 0.46770
C19 C 0.3581(6) 0.6182(13) 0.4815(6)
H17 H 0.34500 0.56190 0.46190
C20 C 0.8405(7) -0.1483(17) 0.5775(6)
H18 H 0.80470 -0.18740 0.57920
H19 H 0.83410 -0.06410 0.57900
C21 C 0.9304(6) -0.1351(14) 0.6276(5)
H20 H 0.94190 -0.06230 0.61870
C22 C 0.8818(9) -0.2918(19) 0.6381(8)
H21 H 0.85190 -0.34490 0.63630
C23 C 0.9261(9) -0.3008(17) 0.6600(7)
H22 H 0.93620 -0.36360 0.67760
C24 C 1.0149(6) -0.1777(15) 0.6741(5)
C25 C 1.0387(8) -0.2482(18) 0.7053(6)
H23 H 1.02030 -0.31280 0.71480
C26 C 1.0954(8) -0.2129(18) 0.7222(6)
H24 H 1.11510 -0.25540 0.74370
C27 C 1.1195(7) -0.118(2) 0.7068(5)
H25 H 1.15530 -0.09180 0.71740
C28 C 1.0866(8) -0.0626(16) 0.6732(6)
C29 C 1.0804(7) 0.1046(15) 0.6269(5)
H26 H 1.04190 0.09850 0.61780
C30 C 1.1647(7) 0.070(2) 0.6605(7)
H27 H 1.19380 0.03490 0.67790
C31 C 1.1693(9) 0.162(2) 0.6361(8)
H28 H 1.20190 0.20500 0.63400
C32 C 1.1010(8) 0.2667(18) 0.5804(7)
H29 H 1.11930 0.34140 0.58790
H30 H 1.06060 0.27970 0.57730
C33 C 1.1170(6) 0.2281(15) 0.5400(6)
C34 C 1.1059(8) 0.3012(18) 0.5109(7)
H31 H 1.09070 0.37380 0.51680
C35 C 1.1160(7) 0.2766(17) 0.4671(7)
H32 H 1.10480 0.32880 0.44570
C36 C 0.8578(6) -0.1746(14) 0.5388(6)
C37 C 0.8450(8) -0.1018(18) 0.5068(7)
H33 H 0.82570 -0.03230 0.51050
C38 C 1.1406(8) 0.1270(18) 0.5306(9)
H34 H 1.14760 0.07030 0.55110
C39 C 0.5272(7) 0.6316(14) 0.3088(5)
C40 C 0.4939(6) 0.5565(13) 0.2727(4)
C41 C 0.4422(6) 0.5839(13) 0.2572(5)
H35 H 0.42420 0.64930 0.26650
C42 C 0.5219(6) 0.4617(14) 0.2594(5)
H36 H 0.55860 0.44370 0.27100
C43 C 0.5530(6) 0.6183(13) 0.4369(4)
C44 C 0.5248(6) 0.5558(12) 0.4701(4)
C45 C 0.5368(6) 0.5914(13) 0.5100(4)
H37 H 0.56250 0.65220 0.51670
C46 C 0.4886(6) 0.4618(14) 0.4597(4)
H38 H 0.48170 0.43540 0.43270
C47 C 0.4935(6) 0.9585(13) 0.4117(5)
C48 C 0.4976(6) 0.9805(13) 0.4564(5)
C49 C 0.5317(6) 0.9122(12) 0.4854(4)
H39 H 0.55350 0.85260 0.47610
C50 C 0.4659(6) 1.0697(12) 0.4726(5)
H40 H 0.44280 1.11780 0.45460
C51 C 0.6821(7) 0.9753(15) 0.4087(6)
C52 C 0.7019(6) 1.0079(11) 0.4522(4)
C53 C 0.6836(6) 0.9458(12) 0.4848(5)
H41 H 0.66150 0.87900 0.47890
C54 C 0.6968(6) 0.9789(14) 0.5239(6)
H42 H 0.68230 0.93600 0.54430
C55 C 0.7318(6) 1.0757(13) 0.5355(5)
C56 C 0.7501(6) 1.1379(13) 0.5017(5)
H43 H 0.77250 1.20450 0.50720
C57 C 0.7362(6) 1.1035(13) 0.4613(5)
H44 H 0.75000 1.14510 0.44030
C58 C 0.7510(7) 1.1100(14) 0.5771(5)
C59 C 0.7161(6) 0.6256(14) 0.3818(5)
C60 C 0.7421(6) 0.5943(13) 0.4260(5)
C61 C 0.7750(6) 0.4985(15) 0.4331(5)
H45 H 0.78500 0.45560 0.41100
C62 C 0.7943(6) 0.4630(13) 0.4730(5)
H46 H 0.81680 0.39610 0.47740
C63 C 0.7804(6) 0.5265(12) 0.5066(5)
C64 C 0.7455(6) 0.6233(12) 0.4982(4)
H47 H 0.73370 0.66550 0.51980
C65 C 0.7281(6) 0.6583(13) 0.4585(5)
H48 H 0.70650 0.72630 0.45360
C66 C 0.8003(6) 0.4829(13) 0.5507(5)
C67 C 0.4118(6) 0.3487(15) 0.1754(5)
C68 C 0.4432(6) 0.4159(14) 0.2117(5)
C69 C 0.4159(6) 0.5137(14) 0.2270(4)
H49 H 0.37880 0.53040 0.21610
C70 C 0.4940(6) 0.3931(14) 0.2282(4)
H50 H 0.51250 0.32860 0.21880
C71 C 0.9337(6) 1.1202(13) 0.5551(5)
C72 C 0.9674(5) 1.0571(12) 0.5252(5)
C73 C 1.0025(7) 0.9674(14) 0.5407(5)
H51 H 1.00280 0.94380 0.56790
C74 C 0.9633(7) 1.0874(13) 0.4833(5)
H52 H 0.93760 1.14410 0.47230
C75 C 0.9765(7) 1.4662(14) 0.5835(5)
C76 C 0.9890(6) 1.4832(12) 0.5403(5)
C77 C 0.9642(7) 1.4158(15) 0.5097(5)
H53 H 0.93970 1.35640 0.51560
C78 C 1.0259(6) 1.5677(13) 0.5306(5)
H54 H 1.04460 1.61480 0.55130
C79 C 1.1182(14) 0.700(4) 0.6202(16)
C80 C 1.2142(15) 0.725(4) 0.6531(16)
C81 C 1.163(2) 0.545(4) 0.6669(17)
O39? O 0.2706(13) 1.297(3) 0.3768(11)
Tb1B Tb 0.41461(3) 0.24103(6) 0.625548(18)
Tb1B* Tb 0.41461(3) 1.24103(6) 0.625548(18)
Tb1* Tb 0.58539(3) 1.75897(6) 0.374452(18)
Tb1C Tb 1.08539(3) 0.74103(6) 0.874452(18)
Tb2* Tb 0.87446(3) 0.26576(6) 0.601130(18)
Tb2C Tb 0.37446(3) 0.23424(6) 0.101130(18)
Tb2B Tb 1.12554(3) 0.73424(6) 0.398870(18)
Tb2B* Tb 1.12554(3) 1.73424(6) 0.398870(18)
Tb2B** Tb 0.12554(3) -0.26576(6) 0.398870(18)
O1B O 0.4130(5) 0.1190(11) 0.6841(4)
O2C O 1.0014(4) 0.7862(9) 0.8230(3)
O2B O 0.4986(4) 0.2862(9) 0.6770(3)
O3C O 1.0759(4) 0.8898(9) 0.8215(3)
O3B O 0.4241(4) 0.3898(9) 0.6785(3)
O4* O 0.8327(5) 0.4049(9) 0.6408(3)
O5B O 0.4679(4) 0.4020(8) 0.6011(3)
O7B O 0.4088(4) 0.3110(9) 0.5538(3)
O9B O 0.4787(4) 1.1209(9) 0.6011(3)
O9B* O 0.4787(4) 0.1209(9) 0.6011(3)
O11B O 0.5378(5) 0.9792(10) 0.6116(4)
O13B O 0.3558(5) 0.1007(11) 0.5979(4)
O15B O 0.2950(6) -0.0247(13) 0.6197(4)
O17B O 0.2105(4) -0.1779(10) 0.4132(3)
O17* O 0.7895(4) 0.1779(10) 0.5868(3)
O19B O 0.2784(6) -0.0701(12) 0.3958(4)
O21* O 0.6686(4) 1.6689(10) 0.3775(3)
O21B O 0.3314(4) 0.3311(10) 0.6225(3)
O23* O 0.7457(5) 1.6093(12) 0.3551(4)
O25* O 0.8290(4) 1.3953(9) 0.5543(3)
O27* O 0.7845(4) 1.5422(10) 0.5797(3)
O29C O 0.9359(5) 1.2475(9) 0.6656(3)
O29C* O 0.9359(5) 0.2475(9) 0.6656(3)
O31C O 0.8695(4) 1.1205(11) 0.6568(3)
O31C* O 0.8695(4) 0.1205(11) 0.6568(3)
O33B O 1.0579(4) 0.8914(9) 0.4089(3)
O33* O 0.9421(4) 0.1086(9) 0.5911(3)
O35B O 1.1084(4) 0.8183(9) 0.4630(3)
O35* O 0.8916(4) 0.1817(9) 0.5370(3)
O36B O 1.0554(4) 1.6145(10) 0.4092(3)
O36* O 0.9446(4) 0.3855(10) 0.5908(3)
O37B O 0.9976(6) 1.4703(12) 0.3868(4)
N1B N 0.6325(5) 0.3346(11) 0.6032(4)
N2B N 0.6350(5) 0.4811(11) 0.6463(4)
N3B N 0.5669(5) 0.6108(11) 0.6557(4)
N4B N 0.4890(5) 0.7270(11) 0.6582(4)
N5B N 0.4072(5) 0.7037(11) 0.6277(4)
N6B N 1.1170(6) 0.1855(12) 0.3847(5)
N7B N 1.0399(6) 0.2040(12) 0.3449(4)
N8B N 0.9636(5) 0.0865(12) 0.3428(4)
N9B N 0.8887(6) -0.0378(14) 0.3445(5)
N10B N 0.8834(7) -0.1810(14) 0.3855(6)
C1B C 0.6176(5) 0.2810(12) 0.5290(5)
C2B C 0.6099(6) 0.2490(13) 0.5735(5)
H1B H 0.62800 0.17380 0.58040
H2B H 0.56990 0.23960 0.57510
C3B C 0.6035(6) 0.4126(14) 0.6233(5)
H3B H 0.56430 0.41550 0.62050
C4B C 0.6851(7) 0.3553(17) 0.6185(7)
H4B H 0.71580 0.31340 0.61130
C5B C 0.6894(7) 0.4440(15) 0.6457(6)
H5B H 0.72210 0.47360 0.66080
C6B C 0.6177(6) 0.5832(14) 0.6669(5)
C7B C 0.6529(6) 0.6389(16) 0.6966(5)
H6B H 0.68930 0.61140 0.70490
C8B C 0.6325(8) 0.7376(17) 0.7141(6)
H7B H 0.65530 0.78080 0.73390
C9B C 0.5775(7) 0.7707(16) 0.7013(5)
H8B H 0.56170 0.83740 0.71170
C10B C 0.5481(7) 0.7018(14) 0.6731(5)
C11B C 0.4567(6) 0.6556(14) 0.6362(5)
H9B H 0.46690 0.58140 0.62770
C12B C 0.4594(7) 0.8255(15) 0.6663(6)
H10B H 0.47310 0.89030 0.68190
C13B C 0.4095(8) 0.8104(16) 0.6483(6)
H11B H 0.37950 0.86230 0.64890
C14B C 0.3607(6) 0.6591(16) 0.5963(6)
H12B H 0.32570 0.69700 0.60080
H13B H 0.35630 0.57510 0.60030
C15B C 0.3708(6) 0.6806(14) 0.5531(5)
C16B C 0.3938(6) 0.7812(14) 0.5417(5)
H14B H 0.40590 0.83870 0.56110
C17B C 0.6007(6) 0.2019(14) 0.4986(6)
H15B H 0.58440 0.13200 0.50590
C18B C 0.3536(7) 0.6019(15) 0.5243(6)
H16B H 0.33760 0.53230 0.53230
C19B C 0.6419(6) 0.3818(13) 0.5185(6)
H17B H 0.65500 0.43810 0.53810
C20B C 1.1595(7) 0.1483(17) 0.4225(6)
H18B H 1.19530 0.18740 0.42080
H19B H 1.16590 0.06410 0.42100
C21B C 1.0696(6) 0.1351(14) 0.3724(5)
H20B H 1.05810 0.06230 0.38130
C22B C 1.1182(9) 0.2918(19) 0.3619(8)
H21B H 1.14810 0.34490 0.36370
C23B C 1.0739(9) 0.3008(17) 0.3400(7)
H22B H 1.06380 0.36360 0.32240
C24B C 0.9851(6) 0.1777(15) 0.3259(5)
C25B C 0.9613(8) 0.2482(18) 0.2947(6)
H23B H 0.97970 0.31280 0.28520
C26B C 0.9046(8) 0.2129(18) 0.2778(6)
H24B H 0.88490 0.25540 0.25630
C27B C 0.8805(7) 0.118(2) 0.2932(5)
H25B H 0.84470 0.09180 0.28260
C28B C 0.9134(8) 0.0626(16) 0.3268(6)
C29B C 0.9196(7) -0.1046(15) 0.3731(5)
H26B H 0.95810 -0.09850 0.38220
C30B C 0.8353(7) -0.070(2) 0.3395(7)
H27B H 0.80620 -0.03490 0.32210
C31B C 0.8307(9) -0.162(2) 0.3639(8)
H28B H 0.79810 -0.20500 0.36600
C32B C 0.8990(8) -0.2667(18) 0.4196(7)
H29B H 0.88070 -0.34140 0.41210
H30B H 0.93940 -0.27970 0.42270
C33B C 0.8830(6) -0.2281(15) 0.4600(6)
C34B C 0.8941(8) -0.3012(18) 0.4891(7)
H31B H 0.90930 -0.37380 0.48320
C35B C 0.8840(7) -0.2766(17) 0.5329(7)
H32B H 0.89520 -0.32880 0.55430
C36B C 1.1422(6) 0.1746(14) 0.4612(6)
C37B C 1.1550(8) 0.1018(18) 0.4932(7)
H33B H 1.17430 0.03230 0.48950
C38B C 0.8594(8) -0.1270(18) 0.4694(9)
H34B H 0.85240 -0.07030 0.44890
C39C C 1.0272(7) 0.8684(14) 0.8088(5)
C40C C 0.9939(6) 0.9435(13) 0.7727(4)
C41C C 0.9422(6) 0.9161(13) 0.7572(5)
H35C H 0.92420 0.85070 0.76650
C42C C 1.0219(6) 1.0383(14) 0.7594(5)
H36C H 1.05860 1.05630 0.77100
C43B C 0.4470(6) 0.3817(13) 0.5631(4)
C44B C 0.4752(6) 0.4442(12) 0.5299(4)
C45B C 0.4632(6) 0.4086(13) 0.4900(4)
H37B H 0.43750 0.34780 0.48330
C46B C 0.5114(6) 0.5382(14) 0.5403(4)
H38B H 0.51830 0.56460 0.56730
C47B C 0.5065(6) 1.0415(13) 0.5883(5)
C48B C 0.5024(6) 1.0195(13) 0.5436(5)
C49B C 0.4683(6) 1.0878(12) 0.5146(4)
H39B H 0.44650 1.14740 0.52390
C50B C 0.5341(6) 0.9303(12) 0.5274(5)
H40B H 0.55720 0.88220 0.54540
C51B C 0.3179(7) 0.0247(15) 0.5913(6)
C52B C 0.2981(6) -0.0079(11) 0.5478(4)
C53B C 0.3164(6) 0.0542(12) 0.5152(5)
H41B H 0.33850 0.12100 0.52110
C54B C 0.3032(6) 0.0211(14) 0.4761(6)
H42B H 0.31770 0.06400 0.45570
C55B C 0.2682(6) -0.0757(13) 0.4645(5)
C56B C 0.2499(6) -0.1379(13) 0.4983(5)
H43B H 0.22750 -0.20450 0.49280
C57B C 0.2638(6) -0.1035(13) 0.5387(5)
H44B H 0.25000 -0.14510 0.55970
C58B C 0.2490(7) -0.1100(14) 0.4229(5)
C59* C 0.7161(6) 1.6256(14) 0.3818(5)
C60* C 0.7421(6) 1.5943(13) 0.4260(5)
C61* C 0.7750(6) 1.4985(15) 0.4331(5)
H45* H 0.78500 1.45560 0.41100
C62* C 0.7943(6) 1.4630(13) 0.4730(5)
H46* H 0.81680 1.39610 0.47740
C63* C 0.7804(6) 1.5265(12) 0.5066(5)
C64* C 0.7455(6) 1.6233(12) 0.4982(4)
H47* H 0.73370 1.66550 0.51980
C65* C 0.7281(6) 1.6583(13) 0.4585(5)
H48* H 0.70650 1.72630 0.45360
C66* C 0.8003(6) 1.4829(13) 0.5507(5)
C67C C 0.9118(6) 1.1513(15) 0.6754(5)
C68C C 0.9432(6) 1.0841(14) 0.7117(5)
C69C C 0.9159(6) 0.9863(14) 0.7270(4)
H49C H 0.87880 0.96960 0.71610
C70C C 0.9940(6) 1.1069(14) 0.7282(4)
H50C H 1.01250 1.17140 0.71880
C71B C 1.0663(6) 0.8798(13) 0.4449(5)
C72B C 1.0326(5) 0.9429(12) 0.4748(5)
C73B C 0.9975(7) 1.0326(14) 0.4593(5)
H51B H 0.99720 1.05620 0.43210
C74B C 1.0367(7) 0.9126(13) 0.5167(5)
H52B H 1.06240 0.85590 0.52770
C75B C 1.0235(7) 1.5338(14) 0.4165(5)
C76B C 1.0110(6) 1.5168(12) 0.4597(5)
C77B C 1.0358(7) 1.5842(15) 0.4903(5)
H53B H 1.06030 1.64360 0.48440
C78B C 0.9741(6) 1.4323(13) 0.4694(5)
H54B H 0.95540 1.38520 0.44870
#END
