
#######################################################################
#
#                 Cambridge Crystallographic Data Centre
#                                CCDC
#
#######################################################################
#
# If this CIF has been generated from an entry in the Cambridge
# Structural Database, then it will include bibliographic, chemical,
# crystal, experimental, refinement or atomic coordinate data resulting
# from the CCDC's data processing and validation procedures.
#
#######################################################################

data_CSD_CIF_ZEFHID
_audit_creation_date 2013-04-04
_audit_creation_method CSD-ConQuest-V1
_database_code_CSD ZEFHID
_database_code_depnum_ccdc_archive 'CCDC 877725'
_chemical_formula_sum 'C36 H45 N2 O18.5 S4 U1'
_chemical_formula_moiety
;
(C28 H20 O18 S4 U1 2-)n,2n(C4 H12 N1 1+),0.5n(H2 O1)
;
_journal_coden_Cambridge 1350
_journal_volume 14
_journal_year 2012
_journal_page_first 6369
_journal_name_full 'CrystEngComm '
loop_
_publ_author_name
"P.Thuery"
_chemical_name_systematic
;
catena-(bis(tetramethylammonium) 
((\m~4~-25,26,27,28-tetrahydroxycalix[4]arene-5,11,17,23-tetrasulfonato)-dioxo
-uranium) hemihydrate)
;
_cell_volume   2223.167
_exptl_crystal_colour 'light yellow'
_exptl_crystal_density_diffrn 1.745
_exptl_crystal_description 'platelet'
_diffrn_ambient_temperature 150
_refine_special_details
;
Some watr molecules are disordered.

;
#These two values have been output from a single CSD field.
_refine_ls_R_factor_gt 0.0899
_refine_ls_wR_factor_gt 0.0899
_symmetry_cell_setting triclinic
_symmetry_space_group_name_H-M 'P -1'
_symmetry_Int_Tables_number 2
loop_
_symmetry_equiv_pos_site_id
_symmetry_equiv_pos_as_xyz
1 x,y,z
2 -x,-y,-z
_cell_length_a 11.7485(10)
_cell_length_b 11.7636(12)
_cell_length_c 16.8054(18)
_cell_angle_alpha 73.176(5)
_cell_angle_beta 89.985(7)
_cell_angle_gamma 89.854(7)
_cell_formula_units_Z 2
loop_
_atom_type_symbol
_atom_type_radius_bond
C 0.68
H 0.23
N 0.68
O 0.67
S 0.98
U 1.52
loop_
_atom_site_label
_atom_site_type_symbol
_atom_site_fract_x
_atom_site_fract_y
_atom_site_fract_z
U1 U 0.24916(5) 0.15778(4) 0.26547(3)
S1 S -0.0139(3) 0.2290(3) 0.2830(3)
S2 S -0.6512(3) 0.4265(5) 0.2959(2)
S3 S -0.4629(4) 1.0439(4) 0.2725(4)
S4 S 0.1713(2) 0.8673(2) 0.25581(19)
O1 O 0.2265(13) 0.2503(10) 0.1638(8)
O2 O 0.2412(8) 0.0760(9) 0.3691(6)
O3 O 0.0298(12) 0.1353(11) 0.2568(9)
O4 O 0.0878(12) 0.2745(10) 0.3200(8)
O5 O -0.0993(11) 0.1957(13) 0.3526(9)
O6 O -0.1897(8) 0.5996(8) -0.0083(6)
H1 H -0.14290 0.66500 -0.00540
O7 O -0.6558(12) 0.3083(12) 0.3060(8)
O8 O -0.7698(13) 0.4916(14) 0.2771(9)
O9 O -0.6129(11) 0.4564(9) 0.3657(6)
O10 O -0.4018(8) 0.6685(8) -0.0066(6)
H2 H -0.33930 0.61760 -0.00490
O11 O -0.5745(10) 1.1182(12) 0.2355(9)
O12 O -0.4900(15) 0.9526(14) 0.3341(9)
O13 O -0.3810(8) 1.1284(10) 0.2820(7)
O14 O -0.3322(8) 0.8882(8) -0.0149(6)
H3 H -0.35220 0.80840 -0.00660
O15 O 0.2149(7) 0.9909(7) 0.2218(6)
O16 O 0.1054(8) 0.8567(9) 0.3292(6)
O17 O 0.2600(7) 0.7830(8) 0.2651(6)
O18 O -0.1186(8) 0.8188(8) -0.0187(5)
H4 H -0.18220 0.84470 -0.00240
O19 O -0.875(3) 0.565(3) 0.3860(19)
N1 N 0.650(2) 0.2735(16) 0.4709(13)
N2 N -0.1661(19) -0.183(3) 0.4320(12)
C1 C -0.0409(10) 0.5291(11) 0.0924(9)
C2 C -0.0029(11) 0.4412(11) 0.1611(9)
H5 H 0.07030 0.44470 0.18130
C3 C -0.0739(11) 0.3478(10) 0.1999(10)
C4 C -0.1836(11) 0.3388(11) 0.1718(10)
H6 H -0.22990 0.27540 0.19870
C5 C -0.2227(10) 0.4261(11) 0.1032(9)
C6 C -0.1522(10) 0.5190(11) 0.0635(8)
C7 C -0.3423(10) 0.4197(11) 0.0712(9)
H7 H -0.36530 0.33710 0.08550
H8 H -0.34190 0.45040 0.01110
C8 C -0.4305(9) 0.4891(10) 0.1059(7)
C9 C -0.4894(10) 0.4281(11) 0.1770(8)
H9 H -0.47670 0.34770 0.20260
C10 C -0.5679(10) 0.4922(11) 0.2080(8)
C11 C -0.5878(10) 0.6146(11) 0.1715(9)
H10 H -0.64000 0.65490 0.19510
C12 C -0.5293(10) 0.6738(10) 0.1010(8)
C13 C -0.4533(9) 0.6088(10) 0.0675(8)
C14 C -0.5499(11) 0.8071(10) 0.0611(10)
H11 H -0.54250 0.82510 0.00130
H12 H -0.62700 0.82660 0.07320
C15 C -0.4668(10) 0.8837(10) 0.0925(10)
C16 C -0.4951(11) 0.9209(11) 0.1602(11)
H13 H -0.56470 0.89830 0.18620
C17 C -0.4221(11) 0.9917(12) 0.1910(11)
C18 C -0.3153(10) 1.0203(10) 0.1544(9)
H14 H -0.26440 1.06390 0.17610
C19 C -0.2854(10) 0.9844(10) 0.0870(8)
C20 C -0.362(1) 0.9176(10) 0.0563(8)
C21 C -0.1674(10) 1.0169(10) 0.0473(8)
H15 H -0.17370 1.02940 -0.01210
H16 H -0.14330 1.09120 0.05600
C22 C -0.0776(9) 0.9242(10) 0.0814(7)
C23 C -0.0064(10) 0.9356(10) 0.1457(8)
H17 H -0.01530 0.99930 0.16760
C24 C 0.0772(9) 0.8509(10) 0.1764(7)
C25 C 0.0915(10) 0.7528(10) 0.1473(8)
H18 H 0.14700 0.69620 0.17020
C26 C 0.0222(10) 0.740(1) 0.0837(8)
C27 C -0.0584(10) 0.8279(10) 0.0506(7)
C28 C 0.0386(11) 0.6316(11) 0.0509(8)
H19 H 0.02520 0.65550 -0.00860
H20 H 0.11680 0.60440 0.06030
C29 C 0.748(4) 0.191(3) 0.501(3)
H21 H 0.81130 0.23490 0.51260
H22 H 0.76860 0.15410 0.45920
H23 H 0.72610 0.13120 0.55100
C30 C 0.6726(16) 0.354(2) 0.3890(17)
H24 H 0.74860 0.38450 0.38740
H25 H 0.61920 0.41860 0.37740
H26 H 0.66500 0.31210 0.34810
C31 C 0.606(6) 0.334(3) 0.528(2)
H27 H 0.60790 0.28160 0.58380
H28 H 0.52850 0.35750 0.51320
H29 H 0.65040 0.40360 0.52560
C32 C 0.555(2) 0.196(2) 0.4587(18)
H30 H 0.58300 0.14130 0.43070
H31 H 0.49620 0.24460 0.42580
H32 H 0.52430 0.15290 0.51180
C33 C -0.081(5) -0.287(3) 0.472(2)
H33 H -0.01660 -0.28140 0.43610
H34 H -0.11900 -0.36150 0.47840
H35 H -0.05710 -0.28170 0.52510
C34 C -0.104(3) -0.096(3) 0.451(3)
H36 H -0.02570 -0.10320 0.43790
H37 H -0.11160 -0.10360 0.50930
H38 H -0.13240 -0.01930 0.41940
C35 C -0.176(2) -0.175(6) 0.3449(16)
H39 H -0.25500 -0.18210 0.33140
H40 H -0.13370 -0.23870 0.33360
H41 H -0.14720 -0.10050 0.31170
C36 C -0.267(3) -0.219(6) 0.481(2)
H42 H -0.24800 -0.23710 0.53930
H43 H -0.29870 -0.28780 0.47030
H44 H -0.32200 -0.15540 0.46750
U1* U -0.75084(5) 0.15778(4) 0.26547(3)
U1** U -0.75084(5) 1.15778(4) 0.26547(3)
U1*** U 0.24916(5) 1.15778(4) 0.26547(3)
O7* O 0.3442(12) 0.3083(12) 0.3060(8)
O11* O 0.4255(10) 0.1182(12) 0.2355(9)
O15* O 0.2149(7) -0.0091(7) 0.2218(6)
#END
