
#######################################################################
#
#                 Cambridge Crystallographic Data Centre
#                                CCDC
#
#######################################################################
#
# If this CIF has been generated from an entry in the Cambridge
# Structural Database, then it will include bibliographic, chemical,
# crystal, experimental, refinement or atomic coordinate data resulting
# from the CCDC's data processing and validation procedures.
#
#######################################################################

data_CSD_CIF_ZEFYIU
_audit_creation_date 2013-01-17
_audit_creation_method CSD-ConQuest-V1
_database_code_CSD ZEFYIU
_database_code_depnum_ccdc_archive 'CCDC 842642'
_chemical_formula_sum 'C85 H110 N12 O20 Zn2'
_chemical_formula_moiety
;
(C53 H32 N1 O10 Zn2 1-)n,n(C2 H8 N1 1+),10n(C3 H7 N1 O1)
;
_journal_coden_Cambridge 1350
_journal_volume 14
_journal_year 2012
_journal_page_first 6952
_journal_name_full 'CrystEngComm '
loop_
_publ_author_name
"Zheng-Bo Han"
"Yan-Fang Liang"
"Ming Zhou"
"Ya-Ru Zhang"
"Li Li"
"Jian Tong"
_chemical_name_systematic
;
catena-(dimethylammonium 
(\m~6~-4,4',4''-(benzene-1,3,5-triyl-tris(benzene-4,1-diyl))-tribenzoato)-(\m~
2~-2-aminobenzoato)-di-zinc N,N-dimethylformamide solvate)
;
_cell_volume  13027.292
_exptl_crystal_colour 'colorless'
_exptl_crystal_description 'block'
_diffrn_ambient_temperature 296
_refine_special_details
;
The SQUEEZE/PLATON program has been used to model some the ammonium cation 
and the solvent molecules.
;
#These two values have been output from a single CSD field.
_refine_ls_R_factor_gt 0.0739
_refine_ls_wR_factor_gt 0.0739
_symmetry_cell_setting hexagonal
_symmetry_space_group_name_H-M 'P 61'
_symmetry_Int_Tables_number 169
loop_
_symmetry_equiv_pos_site_id
_symmetry_equiv_pos_as_xyz
1 x,y,z
2 x-y,x,1/6+z
3 -y,x-y,1/3+z
4 -x,-y,1/2+z
5 -x+y,-x,2/3+z
6 y,-x+y,5/6+z
_cell_length_a 23.965(3)
_cell_length_b 23.965(3)
_cell_length_c 26.192(6)
_cell_angle_alpha 90
_cell_angle_beta 90
_cell_angle_gamma 120
_cell_formula_units_Z 6
loop_
_atom_type_symbol
_atom_type_radius_bond
C 0.72
N 0.68
O 0.68
Zn 1.22
loop_
_atom_site_label
_atom_site_type_symbol
_atom_site_fract_x
_atom_site_fract_y
_atom_site_fract_z
Zn1 Zn 0.4516(2) 0.5453(2) 0.43281(16)
Zn2 Zn 0.45462(19) 0.5487(2) 0.55699(16)
C1 C 0.7520(15) 0.2472(15) 0.4970(12)
C2 C 0.8189(15) 0.2805(8) 0.5003(11)
C3 C 0.8522(8) 0.2469(15) 0.4998(10)
C4 C 0.8188(15) 0.1801(15) 0.4961(11)
C5 C 0.7519(15) 0.1468(8) 0.4929(10)
C6 C 0.7185(8) 0.1804(15) 0.4933(11)
C7 C 0.7182(16) 0.2845(16) 0.4977(15)
C8 C 0.6638(18) 0.2633(10) 0.4672(11)
C9 C 0.6286(10) 0.2950(17) 0.4686(11)
C10 C 0.6476(16) 0.3479(16) 0.5004(14)
C11 C 0.7020(18) 0.3691(10) 0.531(1)
C12 C 0.7372(10) 0.3374(18) 0.5296(11)
C13 C 0.6166(8) 0.3881(8) 0.4928(12)
C14 C 0.5886(9) 0.3937(8) 0.4480(9)
C15 C 0.5538(7) 0.4259(7) 0.4485(7)
C16 C 0.5470(6) 0.4524(5) 0.4936(9)
C17 C 0.5750(8) 0.4468(7) 0.5383(7)
C18 C 0.6098(8) 0.4146(9) 0.5379(9)
C19 C 0.5181(7) 0.5070(6) 0.4905(15)
C20 C 0.9266(8) 0.2836(14) 0.5049(11)
C21 C 0.9600(16) 0.2599(9) 0.4777(9)
C22 C 1.0270(16) 0.2928(16) 0.4783(10)
C23 C 1.0605(8) 0.3494(15) 0.5062(12)
C24 C 1.0270(17) 0.3732(10) 0.5335(10)
C25 C 0.9601(17) 0.3402(16) 0.5329(9)
C26 C 1.1335(8) 0.3924(9) 0.5082(10)
C27 C 1.1604(11) 0.3904(10) 0.4617(9)
C28 C 1.2270(12) 0.4229(11) 0.4558(6)
C29 C 1.2666(8) 0.4574(8) 0.4964(7)
C30 C 1.2398(10) 0.4594(9) 0.5429(6)
C31 C 1.1732(10) 0.4269(11) 0.5488(8)
C32 C 1.3341(8) 0.4973(11) 0.5014(12)
C33 C 0.7188(13) 0.0744(7) 0.4861(10)
C34 C 0.6603(15) 0.0419(15) 0.4604(9)
C35 C 0.6258(9) -0.0250(15) 0.4601(9)
C36 C 0.6498(14) -0.0595(7) 0.4856(11)
C37 C 0.7082(15) -0.0271(15) 0.5113(9)
C38 C 0.7428(9) 0.0399(16) 0.5116(9)
C39 C 0.6122(7) -0.1342(7) 0.4819(7)
C40 C 0.5773(7) -0.1700(8) 0.4399(6)
C41 C 0.5395(8) -0.2366(8) 0.4435(6)
C42 C 0.5365(7) -0.2674(7) 0.4893(6)
C43 C 0.5713(9) -0.2316(8) 0.5313(6)
C44 C 0.6092(10) -0.1650(8) 0.5277(7)
C45 C 0.5113(8) -0.3367(7) 0.4931(8)
C46 C 0.563(3) 0.5053(19) 0.146(2)
C47 C 0.5321(4) 0.4997(4) 0.1988(5)
C48 C 0.4781(4) 0.4619(4) 0.2286(5)
C49 C 0.4725(4) 0.4830(4) 0.2767(5)
C50 C 0.5209(4) 0.5419(4) 0.2951(5)
C51 C 0.5749(4) 0.5797(4) 0.2653(5)
C52 C 0.5805(4) 0.5586(4) 0.2171(5)
C53 C 0.5070(4) 0.5648(4) 0.3508(5)
N1 N 0.6310(4) 0.6512(4) 0.2991(5)
O1 O 0.4844(4) 0.4925(4) 0.4555(5)
O2 O 0.5062(4) 0.5083(4) 0.5335(5)
O3 O 1.3670(4) 0.5202(6) 0.5395(7)
O4 O 1.3584(4) 0.4930(6) 0.4590(7)
O5 O 0.5015(6) -0.3635(4) 0.5346(6)
O6 O 0.4738(6) -0.3679(4) 0.4539(6)
O7 O 0.5388(5) 0.4517(5) 0.1349(5)
O8 O 0.6055(5) 0.5462(5) 0.1213(5)
O9 O 0.5507(4) 0.6012(4) 0.3789(5)
O10 O 0.4524(4) 0.5377(4) 0.3672(5)
Zn1* Zn 1.4516(2) 0.5453(2) 0.43281(16)
Zn1** Zn 0.4516(2) -0.4547(2) 0.43281(16)
Zn2* Zn 1.45462(19) 0.5487(2) 0.55699(16)
Zn2** Zn 0.45462(19) -0.4513(2) 0.55699(16)
Zn2C Zn 0.54538(19) 0.4513(2) 0.05699(16)
O3* O 0.3670(4) 0.5202(6) 0.5395(7)
O4* O 0.3584(4) 0.4930(6) 0.4590(7)
O5* O 0.5015(6) 0.6365(4) 0.5346(6)
O6* O 0.4738(6) 0.6321(4) 0.4539(6)
O7C O 0.4612(5) 0.5483(5) 0.6349(5)
#END
