
#######################################################################
#
#                 Cambridge Crystallographic Data Centre
#                                CCDC
#
#######################################################################
#
# If this CIF has been generated from an entry in the Cambridge
# Structural Database, then it will include bibliographic, chemical,
# crystal, experimental, refinement or atomic coordinate data resulting
# from the CCDC's data processing and validation procedures.
#
#######################################################################

data_CSD_CIF_ZERLEQ
_audit_creation_date 2017-11-08
_audit_creation_method CSD-ConQuest-V1
_database_code_CSD ZERLEQ
_database_code_depnum_ccdc_archive 'CCDC 1556189'
_chemical_formula_sum 'C72 H86 B2 Co2 N24 O90 W24'
_chemical_formula_moiety
;
3(C12 H12 N4 2+),n(C36 H34 B2 Co2 N12 O82 W24 6-),8(H2 O1)
;
_journal_coden_Cambridge 155
_journal_volume 471
_journal_year 2018
_journal_page_first 316
_journal_name_full 'Inorg.Chim.Acta '
loop_
_publ_author_name
"Zhenzhen He"
"Dan Ma"
"Bingran Cao"
"Xiaoqin Li"
"Ying Lu"
_chemical_name_systematic
;
catena-[tris(1,1'-(1,4-phenylene)di(1H-imidazol-3-ium)) 
hexacontakis(\m-oxo)-tris(\m-1,1'-(1,4-phenylene)di(1H-imidazole))-diaqua-icos
a-oxo-di-boron-di-cobalt-tetracosa-tungsten octahydrate]
;
_cell_volume   3267.677
_exptl_crystal_colour 'yellow'
_exptl_crystal_density_diffrn 3.699
_exptl_crystal_description 'block'
_diffrn_ambient_temperature 296
_refine_special_details
;
C34,C35,C36,N11,N12 and C34A,C35A,C36A,N11A,N12A disordered over two sites 
with occupancies 0.607:0.393.
;
#These two values have been output from a single CSD field.
_refine_ls_R_factor_gt 0.0555
_refine_ls_wR_factor_gt 0.0555
_symmetry_cell_setting triclinic
_symmetry_space_group_name_H-M 'P -1'
_symmetry_Int_Tables_number 2
loop_
_symmetry_equiv_pos_site_id
_symmetry_equiv_pos_as_xyz
1 x,y,z
2 -x,-y,-z
_cell_length_a 13.5450(9)
_cell_length_b 15.0834(11)
_cell_length_c 17.9157(12)
_cell_angle_alpha 80.493(1)
_cell_angle_beta 76.181(1)
_cell_angle_gamma 67.282(1)
_cell_formula_units_Z 1
loop_
_atom_type_symbol
_atom_type_radius_bond
C 0.68
H 0.23
B 0.83
Co 1.26
N 0.68
O 0.68
W 1.62
loop_
_atom_site_label
_atom_site_type_symbol
_atom_site_fract_x
_atom_site_fract_y
_atom_site_fract_z
W1 W 0.44653(3) 0.69132(2) 0.39722(2)
W2 W 0.27447(3) 0.58812(2) 0.38555(2)
W3 W 0.50978(3) 0.86264(2) 0.24157(2)
W4 W 0.18081(3) 0.81696(2) 0.42247(2)
W5 W 0.04613(3) 0.90016(2) 0.25680(2)
W6 W 0.12228(3) 0.67133(2) 0.22751(2)
W7 W 0.36897(3) 0.93565(2) 0.09972(2)
W8 W 0.17740(3) 0.82618(2) 0.08487(2)
W9 W 0.47124(2) 0.68458(2) 0.05742(2)
W10 W 0.41332(3) 0.52341(2) 0.18994(2)
W11 W 0.24529(3) 0.99765(2) 0.27757(2)
W12 W 0.59772(3) 0.60895(2) 0.20693(2)
B1 B 0.3184(6) 0.7600(5) 0.2364(5)
Co1 Co 0.43666(8) 0.26866(7) 0.15676(6)
O1 O 0.4517(4) 0.1367(4) 0.1110(4)
H1 H 0.43730 0.09220 0.15310
H2 H 0.52430 0.10800 0.08230
O2 O 0.5258(5) 0.6743(4) -0.0420(4)
O3 O 0.3907(5) 0.9763(4) 0.2834(4)
O4 O 0.3485(4) 0.8499(4) 0.2195(3)
O5 O 0.3131(5) 0.7265(4) 0.3238(4)
O6 O 0.2119(4) 0.7802(4) 0.2127(3)
O7 O 0.7335(5) 0.5531(4) 0.2075(4)
O8 O 0.2444(5) 0.4971(5) 0.4399(4)
O9 O 0.5419(5) 0.6176(4) 0.3131(3)
O10 O 0.1659(5) 0.6297(4) 0.3242(4)
O11 O 0.1186(4) 0.7293(4) 0.1202(3)
O12 O 0.3219(4) 0.7355(4) 0.0525(3)
O13 O 0.3745(5) 0.5235(4) 0.3027(4)
O14 O 0.4626(5) 0.5577(4) 0.0852(3)
O15 O 0.6032(4) 0.6331(4) 0.0959(3)
O16 O 0.5590(4) 0.5014(4) 0.2049(3)
O17 O 0.5830(4) 0.7410(4) 0.2026(3)
O18 O 0.4616(5) 0.8110(4) 0.0635(4)
O19 O 0.6176(5) 0.8916(5) 0.2569(4)
O20 O 0.3943(5) 0.5853(5) 0.4290(4)
O21 O 0.1003(6) 0.8682(5) 0.5063(4)
O22 O 0.4278(5) 0.4065(4) 0.1773(4)
O23 O 0.0832(5) 0.8509(5) 0.3570(4)
O24 O 0.5311(5) 0.6611(5) 0.4609(4)
O25 O 0.0094(5) 0.7878(5) 0.2600(4)
O26 O 0.3165(5) 0.7732(4) 0.4572(3)
O27 O 0.4789(5) 0.7964(4) 0.3411(4)
O28 O 0.2688(4) 0.5822(4) 0.1853(3)
O29 O 0.1241(5) 0.9794(4) 0.2490(4)
O30 O 0.2213(5) 0.9251(4) 0.3664(4)
O31 O 0.2817(5) 1.0338(4) 0.1653(4)
O32 O -0.0843(4) 0.9825(5) 0.2804(4)
O33 O 0.0431(6) 0.6036(5) 0.2271(4)
O34 O 0.3915(4) 1.0061(4) 0.0194(3)
O35 O 0.2520(5) 0.9130(4) 0.0883(3)
O36 O 0.4092(4) 0.6782(4) 0.1899(3)
O37 O 0.1343(5) 0.8605(5) 0.0004(4)
O38 O 0.1868(6) 1.1102(4) 0.3120(4)
O39 O 0.4943(5) 0.9265(4) 0.1416(4)
O40 O 0.1798(5) 0.6913(4) 0.4499(3)
O41 O 0.0549(4) 0.9128(4) 0.1492(3)
N1 N 0.2714(5) 0.3189(5) 0.1514(4)
N2 N 0.1069(6) 0.3189(5) 0.1609(5)
N3 N -0.2330(5) 0.1951(5) 0.1585(4)
N4 N -0.3946(5) 0.2067(5) 0.1514(4)
N5 N 0.4223(7) 0.1533(5) 0.3921(5)
N6 N 0.4072(6) 0.2301(5) 0.2777(4)
C1 C 0.2171(6) 0.2640(6) 0.1597(5)
H3 H 0.24670 0.19690 0.16430
C2 C 0.2039(6) 0.4101(6) 0.1577(5)
H4 H 0.22290 0.46100 0.16390
C3 C 0.0959(8) 0.4166(7) 0.1531(7)
H5 H 0.03490 0.47140 0.14680
C4 C 0.0225(6) 0.2867(5) 0.1623(5)
C5 C 0.0443(7) 0.1964(6) 0.1373(5)
H6 H 0.11600 0.15570 0.12160
C6 C -0.0402(8) 0.1682(6) 0.1360(6)
H7 H -0.02560 0.10910 0.11800
C7 C -0.1458(6) 0.2266(6) 0.1610(5)
C8 C -0.1682(6) 0.3160(6) 0.1850(5)
H8 H -0.24020 0.35610 0.20050
C9 C -0.0848(7) 0.3466(6) 0.1862(6)
H9 H -0.10040 0.40670 0.20280
C10 C -0.3362(6) 0.2564(7) 0.1470(5)
H10 H -0.35880 0.32310 0.13760
C11 C -0.2299(6) 0.1039(6) 0.1655(6)
H11 H -0.17090 0.04750 0.17220
C12 C -0.3371(8) 0.1128(7) 0.1604(6)
H12 H -0.36190 0.06260 0.16280
C13 C 0.3590(8) 0.2974(7) 0.3315(5)
H13 H 0.32640 0.36370 0.32120
C14 C 0.3677(10) 0.2497(8) 0.4022(7)
H14 H 0.34140 0.27730 0.44910
C15 C 0.4379(8) 0.1483(6) 0.3125(6)
H15 H 0.46760 0.09100 0.28860
C16 C 0.4949(8) 0.0902(8) 0.5109(6)
H16 H 0.49300 0.15060 0.51790
C17 C 0.4557(8) 0.0788(7) 0.4443(6)
C18 C 0.4660(7) -0.0137(6) 0.4372(6)
H17 H 0.44540 -0.02520 0.39480
O42 O -0.3345(17) 1.1946(10) 0.3546(11)
H18 H -0.38560 1.23240 0.39510
H19 H -0.27240 1.21410 0.33930
O43 O 0.4139(13) 0.6106(14) 0.6247(8)
H20 H 0.40630 0.64100 0.57390
H21 H 0.48220 0.55730 0.62200
O44 O 0.1062(15) 0.8353(8) 0.6599(7)
H22 H 0.10460 0.84650 0.60580
H23 H 0.04280 0.88180 0.68760
O45 O 0.2858(7) 0.5722(6) -0.0159(5)
H24 H 0.34320 0.59670 -0.02180
H25 H 0.28560 0.55380 -0.06470
N7 N 0.1282(7) 0.3160(7) -0.0476(6)
N8 N 0.2704(7) 0.1789(7) -0.0557(6)
H26 H 0.33220 0.13340 -0.05290
C19 C 0.1815(14) 0.1761(14) -0.0864(11)
H27 H 0.18370 0.12430 -0.10940
C20 C 0.1004(9) 0.2549(9) -0.0770(7)
H28 H 0.03250 0.26790 -0.08870
C21 C 0.2362(8) 0.2650(8) -0.0335(6)
H29 H 0.27540 0.28950 -0.01190
C22 C 0.1052(9) 0.4812(10) -0.0303(7)
H30 H 0.17810 0.46770 -0.05340
C23 C 0.0615(7) 0.4107(7) -0.0222(5)
C24 C -0.0448(7) 0.4309(8) 0.0056(6)
H31 H -0.07630 0.38530 0.00770
N9 N -0.2662(9) 1.0076(8) 0.4065(7)
H32 H -0.30030 1.06560 0.38930
N10 N -0.1961(8) 0.8507(7) 0.4224(7)
N11 N -0.0958(4) 0.4700(4) 0.3779(7)
N12 N -0.1178(5) 0.3344(4) 0.3681(7)
H33 H -0.14690 0.29220 0.37040
C25 C -0.2531(9) 0.9294(8) 0.3817(7)
H34 H -0.28020 0.92650 0.33940
C26 C -0.2050(16) 0.9737(13) 0.4765(10)
H35 H -0.19620 1.01160 0.50860
C27 C -0.1731(9) 0.8892(10) 0.4786(7)
H36 H -0.13460 0.85010 0.51590
C28 C -0.1647(10) 0.7531(8) 0.4158(7)
C29 C -0.2280(9) 0.7203(9) 0.3812(6)
H37 H -0.28920 0.76670 0.36470
C30 C -0.2062(10) 0.6276(10) 0.3705(7)
H38 H -0.25160 0.60730 0.35160
C31 C -0.1021(12) 0.5624(8) 0.3922(7)
C32 C -0.0528(11) 0.593(1) 0.4183(8)
H39 H 0.00980 0.54870 0.43440
C33 C -0.0778(8) 0.6903(8) 0.4283(6)
H40 H -0.02810 0.70770 0.44470
C34 C 0.0041(5) 0.4041(4) 0.3496(7)
H41 H 0.06940 0.41500 0.33530
C35 C -0.0091(5) 0.3194(4) 0.3459(7)
H42 H 0.04620 0.26180 0.33100
C36 C -0.1724(5) 0.4283(4) 0.3859(8)
H43 H -0.24750 0.45820 0.40070
N13? N -0.0391(4) 0.4684(4) 0.3789(8)
N14? N 0.0747(5) 0.3169(4) 0.3647(8)
H44? H 0.13310 0.26630 0.35960
C37? C -0.0993(5) 0.4140(4) 0.3764(8)
H45? H -0.17460 0.43660 0.38050
C38? C -0.0292(5) 0.3209(4) 0.3668(8)
H46? H -0.04840 0.26930 0.36240
C39? C 0.0685(5) 0.4083(4) 0.3721(9)
H47? H 0.12680 0.42630 0.37250
N5A N 0.5777(7) -0.1533(5) 0.6079(5)
N6A N 0.5928(6) -0.2301(5) 0.7223(4)
C13A C 0.6410(8) -0.2974(7) 0.6685(5)
H13A H 0.67360 -0.36370 0.67880
C14A C 0.6323(10) -0.2497(8) 0.5978(7)
H14A H 0.65860 -0.27730 0.55090
C15A C 0.5621(8) -0.1483(6) 0.6875(6)
H15A H 0.53240 -0.09100 0.71140
C16A C 0.5051(8) -0.0902(8) 0.4891(6)
H16A H 0.50700 -0.15060 0.48210
C17A C 0.5443(8) -0.0788(7) 0.5557(6)
C18A C 0.5340(7) 0.0137(6) 0.5628(6)
H17A H 0.55460 0.02520 0.60520
W1A W 0.55347(3) -0.69132(2) 0.60278(2)
W2A W 0.72553(3) -0.58812(2) 0.61445(2)
W3A W 0.49022(3) -0.86264(2) 0.75843(2)
W4A W 0.81919(3) -0.81696(2) 0.57753(2)
W5A W 0.95387(3) -0.90016(2) 0.74320(2)
W6A W 0.87772(3) -0.67133(2) 0.77249(2)
W7A W 0.63103(3) -0.93565(2) 0.90028(2)
W8A W 0.82260(3) -0.82618(2) 0.91513(2)
W9A W 0.52876(2) -0.68458(2) 0.94258(2)
W10A W 0.58668(3) -0.52341(2) 0.81006(2)
W11A W 0.75471(3) -0.99765(2) 0.72243(2)
W12A W 0.40228(3) -0.60895(2) 0.79307(2)
B1A B 0.6816(6) -0.7600(5) 0.7636(5)
Co1A Co 0.56334(8) -0.26866(7) 0.84324(6)
O1A O 0.5483(4) -0.1367(4) 0.8890(4)
H1A H 0.56270 -0.09220 0.84690
H2A H 0.47570 -0.10800 0.91770
O2A O 0.4742(5) -0.6743(4) 1.0420(4)
O3A O 0.6093(5) -0.9763(4) 0.7166(4)
O4A O 0.6515(4) -0.8499(4) 0.7805(3)
O5A O 0.6869(5) -0.7265(4) 0.6762(4)
O6A O 0.7881(4) -0.7802(4) 0.7873(3)
O7A O 0.2665(5) -0.5531(4) 0.7925(4)
O8A O 0.7556(5) -0.4971(5) 0.5601(4)
O9A O 0.4581(5) -0.6176(4) 0.6869(3)
O10A O 0.8341(5) -0.6297(4) 0.6758(4)
O11A O 0.8814(4) -0.7293(4) 0.8798(3)
O12A O 0.6781(4) -0.7355(4) 0.9475(3)
O13A O 0.6255(5) -0.5235(4) 0.6973(4)
O14A O 0.5374(5) -0.5577(4) 0.9148(3)
O15A O 0.3968(4) -0.6331(4) 0.9041(3)
O16A O 0.4410(4) -0.5014(4) 0.7951(3)
O17A O 0.4170(4) -0.7410(4) 0.7974(3)
O18A O 0.5384(5) -0.8110(4) 0.9365(4)
O19A O 0.3824(5) -0.8916(5) 0.7431(4)
O20A O 0.6057(5) -0.5853(5) 0.5710(4)
O21A O 0.8997(6) -0.8682(5) 0.4937(4)
O22A O 0.5722(5) -0.4065(4) 0.8227(4)
O23A O 0.9168(5) -0.8509(5) 0.6430(4)
O24A O 0.4689(5) -0.6611(5) 0.5391(4)
O25A O 0.9906(5) -0.7878(5) 0.7400(4)
O26A O 0.6835(5) -0.7732(4) 0.5428(3)
O27A O 0.5211(5) -0.7964(4) 0.6589(4)
O28A O 0.7312(4) -0.5822(4) 0.8147(3)
O29A O 0.8759(5) -0.9794(4) 0.7510(4)
O30A O 0.7787(5) -0.9251(4) 0.6336(4)
O31A O 0.7183(5) -1.0338(4) 0.8347(4)
O32A O 1.0843(4) -0.9825(5) 0.7196(4)
O33A O 0.9569(6) -0.6036(5) 0.7729(4)
O34A O 0.6085(4) -1.0061(4) 0.9806(3)
O35A O 0.7480(5) -0.9130(4) 0.9117(3)
O36A O 0.5908(4) -0.6782(4) 0.8101(3)
O37A O 0.8657(5) -0.8605(5) 0.9996(4)
O38A O 0.8132(6) -1.1102(4) 0.6880(4)
O39A O 0.5057(5) -0.9265(4) 0.8584(4)
O40A O 0.8202(5) -0.6913(4) 0.5501(3)
O41A O 0.9451(4) -0.9128(4) 0.8508(3)
N1A N 0.7286(5) -0.3189(5) 0.8486(4)
N2A N 0.8931(6) -0.3189(5) 0.8391(5)
N3A N 1.2330(5) -0.1951(5) 0.8415(4)
N4A N 1.3946(5) -0.2067(5) 0.8486(4)
C1A C 0.7829(6) -0.2640(6) 0.8403(5)
H3A H 0.75330 -0.19690 0.83570
C2A C 0.7961(6) -0.4101(6) 0.8423(5)
H4A H 0.77710 -0.46100 0.83610
C3A C 0.9041(8) -0.4166(7) 0.8469(7)
H5A H 0.96510 -0.47140 0.85320
C4A C 0.9775(6) -0.2867(5) 0.8377(5)
C5A C 0.9557(7) -0.1964(6) 0.8627(5)
H6A H 0.88400 -0.15570 0.87840
C6A C 1.0402(8) -0.1682(6) 0.8640(6)
H7A H 1.02560 -0.10910 0.88200
C7A C 1.1458(6) -0.2266(6) 0.8390(5)
C8A C 1.1682(6) -0.3160(6) 0.8150(5)
H8A H 1.24020 -0.35610 0.79950
C9A C 1.0848(7) -0.3466(6) 0.8138(6)
H9A H 1.10040 -0.40670 0.79720
C10A C 1.3362(6) -0.2564(7) 0.8530(5)
H10A H 1.35880 -0.32310 0.86240
C11A C 1.2299(6) -0.1039(6) 0.8345(6)
H11A H 1.17090 -0.04750 0.82780
C12A C 1.3371(8) -0.1128(7) 0.8396(6)
H12A H 1.36190 -0.06260 0.83720
Co1* Co -0.56334(8) 0.26866(7) 0.15676(6)
Co1** Co 0.43666(8) -0.73134(7) 1.15676(6)
Co1A* Co 0.56334(8) 0.73134(7) -0.15676(6)
Co1A** Co 1.56334(8) -0.26866(7) 0.84324(6)
O2* O 0.5258(5) -0.3257(4) 0.9580(4)
O2A* O 0.4742(5) 0.3257(4) 0.0420(4)
N4* N 0.6054(5) 0.2067(5) 0.1514(4)
N4A* N 0.3946(5) -0.2067(5) 0.8486(4)
N7A N -0.1282(7) 0.6840(7) 0.0476(6)
N8A N -0.2704(7) 0.8211(7) 0.0557(6)
H26A H -0.33220 0.86660 0.05290
C19A C -0.1815(14) 0.8239(14) 0.0864(11)
H27A H -0.18370 0.87570 0.10940
C20A C -0.1004(9) 0.7451(9) 0.0770(7)
H28A H -0.03250 0.73210 0.08870
C21A C -0.2362(8) 0.7350(8) 0.0335(6)
H29A H -0.27540 0.71050 0.01190
C22A C -0.1052(9) 0.5188(10) 0.0303(7)
H30A H -0.17810 0.53230 0.05340
C23A C -0.0615(7) 0.5893(7) 0.0222(5)
C24A C 0.0448(7) 0.5691(8) -0.0056(6)
H31A H 0.07630 0.61470 -0.00770
#END
