
#######################################################################
#
#                 Cambridge Crystallographic Data Centre
#                                CCDC
#
#######################################################################
#
# If this CIF has been generated from an entry in the Cambridge
# Structural Database, then it will include bibliographic, chemical,
# crystal, experimental, refinement or atomic coordinate data resulting
# from the CCDC's data processing and validation procedures.
#
#######################################################################

data_CSD_CIF_ZERLOA
_audit_creation_date 2017-11-08
_audit_creation_method CSD-ConQuest-V1
_database_code_CSD ZERLOA
_database_code_depnum_ccdc_archive 'CCDC 1556191'
_chemical_formula_sum 'C24 H26 B1 Cu1 K1 N8 O42 W12'
_chemical_formula_moiety
;
C12 H12 N4 2+,n(C12 H10 B1 Cu1 K1 N4 O40 W12 2-),2(H2 O1)
;
_journal_coden_Cambridge 155
_journal_volume 471
_journal_year 2018
_journal_page_first 316
_journal_name_full 'Inorg.Chim.Acta '
loop_
_publ_author_name
"Zhenzhen He"
"Dan Ma"
"Bingran Cao"
"Xiaoqin Li"
"Ying Lu"
_chemical_name_systematic
;
catena-[(1,1'-(1,4-phenylene)di(1H-imidazol-3-ium)) 
dotriacontakis(\m-oxo)-(\m-1,1'-(1,4-phenylene)di(1H-imidazole))-octa-oxo-boro
n-copper-potassium-dodeca-tungsten dihydrate]
;
_cell_volume   5156.856
_exptl_crystal_colour 'yellow'
_exptl_crystal_density_diffrn 4.404
_exptl_crystal_description 'block'
_diffrn_ambient_temperature 294
#These two values have been output from a single CSD field.
_refine_ls_R_factor_gt 0.0624
_refine_ls_wR_factor_gt 0.0624
_symmetry_cell_setting monoclinic
_symmetry_space_group_name_H-M 'C 2/c'
_symmetry_Int_Tables_number 15
loop_
_symmetry_equiv_pos_site_id
_symmetry_equiv_pos_as_xyz
1 x,y,z
2 -x,y,1/2-z
3 1/2+x,1/2+y,z
4 1/2-x,1/2+y,1/2-z
5 -x,-y,-z
6 x,-y,-1/2+z
7 -1/2-x,-1/2-y,-z
8 -1/2+x,-1/2-y,-1/2+z
_cell_length_a 24.6910(6)
_cell_length_b 10.6423(3)
_cell_length_c 19.8951(5)
_cell_angle_alpha 90
_cell_angle_beta 99.451(1)
_cell_angle_gamma 90
_cell_formula_units_Z 4
loop_
_atom_type_symbol
_atom_type_radius_bond
C 0.68
H 0.23
B 0.83
Cu 1.32
K 2.03
N 0.68
O 0.68
W 1.62
loop_
_atom_site_label
_atom_site_type_symbol
_atom_site_fract_x
_atom_site_fract_y
_atom_site_fract_z
W1 W 0.57704(2) 0.98956(3) 0.41441(2)
W2 W 0.38199(2) 1.01258(3) 0.32778(2)
W3 W 0.39800(2) 1.22657(3) 0.21087(2)
W4 W 0.39948(2) 0.77584(3) 0.19905(2)
W5 W 0.48533(2) 0.76641(3) 0.36842(2)
W6 W 0.47570(2) 1.23647(3) 0.36410(2)
B1 B 0.50000 1.0067(10) 0.25000
Cu1 Cu 0.50000 0.50000 0.50000
K1 K 0.50000 0.5015(3) 0.25000
O1 O 0.3754(2) 0.8637(6) 0.1168(3)
O2 O 0.6108(2) 1.1062(6) 0.3589(3)
O3 O 0.6141(3) 1.0191(6) 0.4933(4)
O4 O 0.5201(2) 1.1097(6) 0.4108(3)
O5 O 0.4583(2) 1.0832(6) 0.2769(3)
O6 O 0.4303(2) 0.8925(5) 0.3724(3)
O7 O 0.4645(3) 0.6480(6) 0.4182(3)
O8 O 0.4818(3) 1.3521(6) 0.4254(3)
O9 O 0.3514(3) 1.3390(7) 0.1779(3)
O10 O 0.3713(2) 0.8990(6) 0.2511(3)
O11 O 0.5279(2) 0.9201(5) 0.3082(3)
O12 O 0.3233(3) 0.9859(6) 0.3606(4)
O13 O 0.3490(2) 0.6650(6) 0.1935(3)
O14 O 0.5478(2) 0.6838(6) 0.3450(3)
O15 O 0.4630(2) 1.2809(6) 0.1766(3)
O16 O 0.3509(2) 1.1401(5) 0.2620(3)
O17 O 0.4285(2) 1.3207(5) 0.2931(3)
O18 O 0.4134(2) 1.1452(5) 0.3857(3)
O19 O 0.5317(2) 0.8573(6) 0.4386(3)
O20 O 0.4450(2) 0.7190(5) 0.2828(3)
N1 N 0.5727(3) 0.5249(8) 0.4800(4)
N2 N 0.6552(3) 0.6020(7) 0.4747(4)
C1 C 0.6063(3) 0.6205(8) 0.4955(4)
H1 H 0.59740 0.69230 0.51800
C2 C 0.6027(4) 0.4398(9) 0.4489(5)
H2 H 0.58980 0.36150 0.43280
C3 C 0.6521(5) 0.4841(9) 0.4451(6)
H3 H 0.67950 0.44370 0.42620
C4 C 0.7028(3) 0.6800(8) 0.4867(4)
C5 C 0.7427(4) 0.6660(9) 0.4464(5)
H4 H 0.73720 0.61030 0.40990
C6 C 0.7903(4) 0.7338(9) 0.4598(5)
H5 H 0.81780 0.72250 0.43360
O21 O 0.2454(3) 1.2433(8) 0.2529(5)
H6 H 0.20690 1.22920 0.25160
H7 H 0.25310 1.24890 0.20730
N3 N 0.2773(3) 1.5967(9) 0.3952(4)
N4 N 0.2730(4) 1.4549(12) 0.3172(6)
H8 H 0.26090 1.39660 0.28880
C7 C 0.2429(5) 1.5162(9) 0.3582(6)
H9 H 0.20580 1.50460 0.36010
C8 C 0.3270(5) 1.5009(11) 0.3282(7)
H10 H 0.35530 1.47910 0.30480
C9 C 0.3292(4) 1.5830(11) 0.3797(6)
H11 H 0.36060 1.62390 0.40120
C10 C 0.2626(4) 1.6751(10) 0.4493(5)
C11 C 0.2896(4) 1.7883(10) 0.4625(5)
H12 H 0.31540 1.81420 0.43610
C12 C 0.2782(4) 1.8626(10) 0.5151(5)
H13 H 0.29760 1.93660 0.52650
O5A O 0.5417(2) 1.0832(6) 0.2231(3)
O11A O 0.4721(2) 0.9201(5) 0.1918(3)
N1F N 0.9273(3) 0.9751(8) 0.5200(4)
N2F N 0.8448(3) 0.8980(7) 0.5253(4)
C1F C 0.8937(3) 0.8795(8) 0.5045(4)
H1F H 0.90260 0.80770 0.48200
C2F C 0.8973(4) 1.0602(9) 0.5511(5)
H2F H 0.91020 1.13850 0.56720
C3F C 0.8479(5) 1.0159(9) 0.5549(6)
H3F H 0.82050 1.05630 0.57380
C4F C 0.7972(3) 0.8200(8) 0.5133(4)
C5F C 0.7573(4) 0.8340(9) 0.5536(5)
H4F H 0.76280 0.88970 0.59010
C6F C 0.7097(4) 0.7662(9) 0.5402(5)
H5F H 0.68220 0.77750 0.56640
W1A W 0.42296(2) 0.98956(3) 0.08559(2)
W2A W 0.61801(2) 1.01258(3) 0.17222(2)
W3A W 0.60200(2) 1.22657(3) 0.28913(2)
W4A W 0.60052(2) 0.77584(3) 0.30095(2)
W5A W 0.51467(2) 0.76641(3) 0.13158(2)
W6A W 0.52430(2) 1.23647(3) 0.13590(2)
O1A O 0.6246(2) 0.8637(6) 0.3832(3)
O2A O 0.3892(2) 1.1062(6) 0.1411(3)
O3A O 0.3859(3) 1.0191(6) 0.0067(4)
O4A O 0.4799(2) 1.1097(6) 0.0892(3)
O6A O 0.5697(2) 0.8925(5) 0.1276(3)
O7A O 0.5355(3) 0.6480(6) 0.0818(3)
O8A O 0.5182(3) 1.3521(6) 0.0746(3)
O9A O 0.6486(3) 1.3390(7) 0.3221(3)
O10A O 0.6287(2) 0.8990(6) 0.2489(3)
O12A O 0.6767(3) 0.9859(6) 0.1394(4)
O13A O 0.6510(2) 0.6650(6) 0.3065(3)
O14A O 0.4522(2) 0.6838(6) 0.1550(3)
O15A O 0.5370(2) 1.2809(6) 0.3234(3)
O16A O 0.6491(2) 1.1401(5) 0.2380(3)
O17A O 0.5715(2) 1.3207(5) 0.2069(3)
O18A O 0.5866(2) 1.1452(5) 0.1143(3)
O19A O 0.4683(2) 0.8573(6) 0.0614(3)
O20A O 0.5550(2) 0.7190(5) 0.2172(3)
Cu1* Cu 0.50000 1.50000 0.50000
Cu1A Cu 0.50000 0.50000 0.00000
Cu1A* Cu 0.50000 1.50000 0.00000
Cu1B Cu 1.00000 1.00000 0.50000
K1* K 0.50000 1.5015(3) 0.25000
O7D O 0.5355(3) 0.3520(6) 0.5818(3)
O8* O 0.4818(3) 0.3521(6) 0.4254(3)
O8D O 0.5182(3) 0.6479(6) 0.5746(3)
O15* O 0.4630(2) 0.2809(6) 0.1766(3)
O15A* O 0.5370(2) 0.2809(6) 0.3234(3)
O17* O 0.4285(2) 0.3207(5) 0.2931(3)
O17A* O 0.5715(2) 0.3207(5) 0.2069(3)
N1D N 0.4273(3) 0.4751(8) 0.5200(4)
N3F N 0.2227(3) 1.9033(9) 0.6048(4)
N4F N 0.2270(4) 2.0451(12) 0.6828(6)
H8F H 0.23910 2.10340 0.71120
C7F C 0.2571(5) 1.9838(9) 0.6418(6)
H9F H 0.29420 1.99540 0.63990
C8F C 0.1730(5) 1.9991(11) 0.6718(7)
H10F H 0.14470 2.02090 0.69520
C9F C 0.1708(4) 1.9170(11) 0.6203(6)
H11F H 0.13940 1.87610 0.59880
C10F C 0.2374(4) 1.8249(10) 0.5507(5)
C11F C 0.2104(4) 1.7117(10) 0.5375(5)
H12F H 0.18460 1.68580 0.56390
C12F C 0.2218(4) 1.6374(10) 0.4849(5)
H13F H 0.20240 1.56340 0.47350
#END
