
#######################################################################
#
#                 Cambridge Crystallographic Data Centre
#                                CCDC
#
#######################################################################
#
# If this CIF has been generated from an entry in the Cambridge
# Structural Database, then it will include bibliographic, chemical,
# crystal, experimental, refinement or atomic coordinate data resulting
# from the CCDC's data processing and validation procedures.
#
#######################################################################

data_CSD_CIF_ZERLUG
_audit_creation_date 2017-11-08
_audit_creation_method CSD-ConQuest-V1
_database_code_CSD ZERLUG
_database_code_depnum_ccdc_archive 'CCDC 1556192'
_chemical_formula_sum 'C66 H76 N20 Ni2 O72 P2 W18'
_chemical_formula_moiety
;
(C66 H64 N20 Ni2 O4 6+)n,O62 P2 W18 6-,6(H2 O1)
;
_journal_coden_Cambridge 155
_journal_volume 471
_journal_year 2018
_journal_page_first 316
_journal_name_full 'Inorg.Chim.Acta '
loop_
_publ_author_name
"Zhenzhen He"
"Dan Ma"
"Bingran Cao"
"Xiaoqin Li"
"Ying Lu"
_chemical_name_systematic
;
catena-[(\m-1,1'-(biphenyl-4,4'-diyl)bis(1H-imidazole))-bis(\m-1,1'-(1,4-pheny
lene)bis(1H-imidazole))-tetra-aqua-bis(1-(4-(1H-imidazol-3-ium-1-yl)phenyl)-1H
-imidazole)-di-nickel 
(bis(\m-phosphato)-hexatriacontakis(\m-oxo)-octadeca-oxo-octadeca-tungsten) 
hexahydrate]
;
_cell_volume  11036.868
_exptl_crystal_colour 'yellow'
_exptl_crystal_density_diffrn 3.485
_exptl_crystal_description 'block'
_diffrn_ambient_temperature 296
#These two values have been output from a single CSD field.
_refine_ls_R_factor_gt 0.0381
_refine_ls_wR_factor_gt 0.0381
_symmetry_cell_setting monoclinic
_symmetry_space_group_name_H-M 'C 2/c'
_symmetry_Int_Tables_number 15
loop_
_symmetry_equiv_pos_site_id
_symmetry_equiv_pos_as_xyz
1 x,y,z
2 -x,y,1/2-z
3 1/2+x,1/2+y,z
4 1/2-x,1/2+y,1/2-z
5 -x,-y,-z
6 x,-y,-1/2+z
7 -1/2-x,-1/2-y,-z
8 -1/2+x,-1/2-y,-1/2+z
_cell_length_a 27.8364(13)
_cell_length_b 16.5400(13)
_cell_length_c 25.4902(14)
_cell_angle_alpha 90
_cell_angle_beta 109.877(1)
_cell_angle_gamma 90
_cell_formula_units_Z 4
loop_
_atom_type_symbol
_atom_type_radius_bond
C 0.68
H 0.23
N 0.68
Ni 1.24
O 0.68
P 1.05
W 1.62
loop_
_atom_site_label
_atom_site_type_symbol
_atom_site_fract_x
_atom_site_fract_y
_atom_site_fract_z
W1 W -0.07606(2) 0.40148(2) 0.64918(2)
W2 W -0.13844(2) 0.22465(2) 0.63730(2)
W3 W 0.12840(2) 0.22787(2) 0.71196(2)
W4 W 0.06416(2) 0.40266(2) 0.69932(2)
W5 W 0.05991(2) 0.03380(2) 0.69742(2)
W6 W -0.06788(2) 0.03282(2) 0.65301(2)
W7 W -0.00903(2) 0.33661(2) 0.55355(2)
W8 W 0.05042(2) 0.15466(2) 0.57144(2)
W9 W -0.07853(2) 0.16441(2) 0.53254(2)
P1 P -0.00519(8) 0.22048(13) 0.67040(9)
O1 O -0.0711(2) 0.0752(4) 0.5828(2)
O2 O -0.0584(2) 0.3758(4) 0.5857(2)
O3 O -0.2028(2) 0.2062(4) 0.6052(3)
O4 O 0.0517(2) 0.0732(4) 0.6213(2)
O5 O -0.0810(2) 0.4002(4) 0.7247(2)
O6 O -0.0053(2) 0.4216(4) 0.6881(3)
O7 O 0.0396(2) 0.3747(4) 0.6184(2)
O8 O -0.1129(2) 0.1195(4) 0.6553(2)
O9 O -0.0048(2) -0.0197(4) 0.6645(2)
O10 O -0.1380(2) 0.2417(4) 0.7098(3)
O11 O 0.1063(2) 0.1221(4) 0.7213(2)
O12 O -0.1199(2) 0.2119(4) 0.5684(3)
O13 O 0.0562(2) 0.0211(4) 0.7683(2)
O14 O -0.0999(2) 0.4966(4) 0.6303(3)
O15 O -0.0650(2) 0.2672(4) 0.5083(2)
O16 O 0.0375(2) 0.2638(4) 0.5393(2)
O17 O 0.1245(2) 0.3420(4) 0.7041(2)
O18 O 0.1915(2) 0.2131(4) 0.7213(3)
O19 O 0.1003(2) 0.2098(4) 0.6344(2)
O20 O -0.0100(3) 0.4100(4) 0.5062(3)
O21 O 0.1007(2) -0.0434(4) 0.6985(3)
O22 O -0.1230(2) 0.1295(4) 0.4729(3)
O23 O 0.0438(2) 0.2645(4) 0.7036(2)
O24 O -0.1097(2) -0.0461(4) 0.6299(3)
O25 O 0.0857(3) 0.4964(4) 0.6904(3)
O26 O -0.0039(2) 0.1318(4) 0.6882(2)
O27 O -0.0091(2) 0.2202(4) 0.6069(2)
O28 O 0.0883(2) 0.1173(4) 0.5371(3)
O29 O -0.0159(2) 0.1271(4) 0.5228(2)
O30 O -0.0526(2) 0.2647(4) 0.6734(2)
O31 O -0.1372(2) 0.3394(4) 0.6238(2)
Ni1 Ni 0.30962(4) 0.09641(8) 0.45030(5)
O32 O 0.3590(2) 0.0018(4) 0.4862(3)
H1 H 0.34440 -0.03080 0.50810
H2 H 0.36400 -0.03070 0.45720
O33 O 0.3632(3) 0.1328(5) 0.4136(3)
H3 H 0.39230 0.09750 0.42560
H4 H 0.37380 0.18720 0.42480
C1 C 0.3403(4) 0.2407(7) 0.5325(5)
H5 H 0.30740 0.26160 0.52260
C2 C 0.3822(4) 0.2791(7) 0.5645(5)
H6 H 0.38410 0.33050 0.57980
C3 C 0.4022(4) 0.1597(7) 0.5397(4)
H7 H 0.42070 0.11480 0.53540
C4 C 0.4759(4) 0.2401(7) 0.5941(5)
C5 C 0.4963(4) 0.3130(7) 0.5894(5)
H8 H 0.47490 0.35650 0.57450
C6 C 0.5493(4) 0.3234(7) 0.6069(5)
H9 H 0.56320 0.37350 0.60380
C7 C 0.5801(4) 0.2590(7) 0.6284(5)
C8 C 0.5608(4) 0.1845(7) 0.6392(5)
H10 H 0.58270 0.14330 0.65780
C9 C 0.5068(4) 0.1738(7) 0.6211(5)
H11 H 0.49240 0.12520 0.62660
C10 C 0.6687(4) 0.3097(8) 0.6753(5)
H12 H 0.66220 0.34540 0.70020
C11 C 0.7135(4) 0.2981(8) 0.6695(5)
H13 H 0.74410 0.32350 0.68940
C12 C 0.6578(4) 0.2216(7) 0.6111(5)
H14 H 0.64260 0.18460 0.58290
C13 C 0.2102(4) 0.0428(8) 0.4748(5)
H15 H 0.18900 0.04490 0.43770
C14 C 0.1938(4) 0.0270(7) 0.5167(4)
H16 H 0.16040 0.01910 0.51560
C15 C 0.2769(4) 0.0441(7) 0.5451(4)
H17 H 0.31070 0.04860 0.56840
C16 C 0.2411(4) 0.0150(7) 0.6195(4)
C17 C 0.2865(4) -0.0096(7) 0.6603(4)
H18 H 0.31440 -0.02340 0.65000
C18 C 0.2904(4) -0.0138(7) 0.7150(4)
H19 H 0.32100 -0.03010 0.74170
C19 C 0.2489(4) 0.0062(7) 0.7310(4)
C20 C 0.2040(4) 0.0290(7) 0.6916(4)
H20 H 0.17630 0.04260 0.70240
C21 C 0.1990(4) 0.0321(7) 0.6358(4)
H21 H 0.16780 0.04560 0.60920
C22 C 0.2300(4) 0.0564(8) 0.8141(4)
H22 H 0.20800 0.09870 0.79760
C23 C 0.2456(4) 0.0332(7) 0.8690(4)
H23 H 0.23580 0.05840 0.89630
C24 C 0.2810(4) -0.0457(7) 0.8285(4)
H24 H 0.30100 -0.08700 0.82210
C25 C 0.2099(3) 0.1758(4) 0.3772(4)
H25 H 0.19260 0.12830 0.37880
C26 C 0.2284(3) 0.2958(5) 0.3515(4)
H26 H 0.22610 0.34540 0.33370
C27 C 0.2719(3) 0.2655(4) 0.3918(4)
H27 H 0.30360 0.29080 0.40470
C28 C 0.1349(2) 0.2617(4) 0.3117(4)
C29 C 0.1042(2) 0.1990(4) 0.2855(4)
H28 H 0.11840 0.14840 0.28440
C30 C 0.0530(2) 0.2101(4) 0.2610(4)
H29 H 0.03360 0.16630 0.24240
C31 C 0.0278(3) 0.2810(4) 0.2617(5)
C32 C 0.0583(2) 0.3463(4) 0.2840(5)
H30 H 0.04410 0.39730 0.28340
C33 C 0.1098(2) 0.3349(4) 0.3072(6)
H31 H 0.12980 0.38030 0.32120
N1 N 0.3515(3) 0.1686(6) 0.5163(4)
N2 N 0.4224(3) 0.2254(6) 0.5702(4)
N3 N 0.6347(3) 0.2629(6) 0.6401(4)
N4 N 0.7064(3) 0.2426(6) 0.6298(4)
H32 H 0.72970 0.22350 0.61810
N5 N 0.2615(3) 0.0556(6) 0.4918(4)
N6 N 0.2383(3) 0.0251(6) 0.5626(3)
N7 N 0.2532(3) 0.0048(6) 0.7891(3)
N8 N 0.2767(3) -0.0301(6) 0.8780(3)
N9 N 0.2604(2) 0.1916(4) 0.4095(3)
N10 N 0.1886(2) 0.2408(4) 0.3420(4)
O34 O 0.2327(4) -0.1635(7) 0.5203(5)
H33 H 0.20180 -0.13270 0.50570
H34 H 0.22450 -0.21970 0.52120
O35 O 0.3182(3) -0.1487(5) 0.4943(3)
H35 H 0.29750 -0.16680 0.45780
H36 H 0.34550 -0.18650 0.51010
O36 O 0.4131(3) -0.0258(6) 0.4204(4)
H37 H 0.39900 -0.06210 0.38960
H38 H 0.44950 -0.02830 0.43740
W1A W 0.07606(2) 0.40148(2) 0.85082(2)
W2A W 0.13844(2) 0.22465(2) 0.86270(2)
W3A W -0.12840(2) 0.22787(2) 0.78804(2)
W4A W -0.06416(2) 0.40266(2) 0.80068(2)
W5A W -0.05991(2) 0.03380(2) 0.80258(2)
W6A W 0.06788(2) 0.03282(2) 0.84699(2)
W7A W 0.00903(2) 0.33661(2) 0.94645(2)
W8A W -0.05042(2) 0.15466(2) 0.92856(2)
W9A W 0.07853(2) 0.16441(2) 0.96746(2)
P1A P 0.00519(8) 0.22048(13) 0.82960(9)
O1A O 0.0711(2) 0.0752(4) 0.9172(2)
O2A O 0.0584(2) 0.3758(4) 0.9143(2)
O3A O 0.2028(2) 0.2062(4) 0.8948(3)
O4A O -0.0517(2) 0.0732(4) 0.8787(2)
O5A O 0.0810(2) 0.4002(4) 0.7753(2)
O6A O 0.0053(2) 0.4216(4) 0.8119(3)
O7A O -0.0396(2) 0.3747(4) 0.8816(2)
O8A O 0.1129(2) 0.1195(4) 0.8447(2)
O9A O 0.0048(2) -0.0197(4) 0.8355(2)
O10A O 0.1380(2) 0.2417(4) 0.7902(3)
O11A O -0.1063(2) 0.1221(4) 0.7787(2)
O12A O 0.1199(2) 0.2119(4) 0.9316(3)
O13A O -0.0562(2) 0.0211(4) 0.7317(2)
O14A O 0.0999(2) 0.4966(4) 0.8697(3)
O15A O 0.0650(2) 0.2672(4) 0.9917(2)
O16A O -0.0375(2) 0.2638(4) 0.9607(2)
O17A O -0.1245(2) 0.3420(4) 0.7959(2)
O18A O -0.1915(2) 0.2131(4) 0.7787(3)
O19A O -0.1003(2) 0.2098(4) 0.8656(2)
O20A O 0.0100(3) 0.4100(4) 0.9938(3)
O21A O -0.1007(2) -0.0434(4) 0.8015(3)
O22A O 0.1230(2) 0.1295(4) 1.0271(3)
O23A O -0.0438(2) 0.2645(4) 0.7964(2)
O24A O 0.1097(2) -0.0461(4) 0.8701(3)
O25A O -0.0857(3) 0.4964(4) 0.8096(3)
O26A O 0.0039(2) 0.1318(4) 0.8118(2)
O27A O 0.0091(2) 0.2202(4) 0.8931(2)
O28A O -0.0883(2) 0.1173(4) 0.9629(3)
O29A O 0.0159(2) 0.1271(4) 0.9772(2)
O30A O 0.0526(2) 0.2647(4) 0.8266(2)
O31A O 0.1372(2) 0.3394(4) 0.8762(2)
C25A C -0.2099(3) 0.1758(4) 0.1228(4)
H25A H -0.19260 0.12830 0.12120
C26A C -0.2284(3) 0.2958(5) 0.1485(4)
H26A H -0.22610 0.34540 0.16630
C27A C -0.2719(3) 0.2655(4) 0.1082(4)
H27A H -0.30360 0.29080 0.09530
C28A C -0.1349(2) 0.2617(4) 0.1883(4)
C29A C -0.1042(2) 0.1990(4) 0.2145(4)
H28A H -0.11840 0.14840 0.21560
C30A C -0.0530(2) 0.2101(4) 0.2390(4)
H29A H -0.03360 0.16630 0.25760
C31A C -0.0278(3) 0.2810(4) 0.2383(5)
C32A C -0.0583(2) 0.3463(4) 0.2160(5)
H30A H -0.04410 0.39730 0.21660
C33A C -0.1098(2) 0.3349(4) 0.1928(6)
H31A H -0.12980 0.38030 0.17880
N9A N -0.2604(2) 0.1916(4) 0.0905(3)
N10A N -0.1886(2) 0.2408(4) 0.1580(4)
Ni1A Ni -0.30962(4) 0.09641(8) 0.04970(5)
O32A O -0.3590(2) 0.0018(4) 0.0138(3)
H1A H -0.34440 -0.03080 -0.00810
H2A H -0.36400 -0.03070 0.04280
O33A O -0.3632(3) 0.1328(5) 0.0864(3)
H3A H -0.39230 0.09750 0.07440
H4A H -0.37380 0.18720 0.07520
C1A C -0.3403(4) 0.2407(7) -0.0325(5)
H5A H -0.30740 0.26160 -0.02260
C2A C -0.3822(4) 0.2791(7) -0.0645(5)
H6A H -0.38410 0.33050 -0.07980
C3A C -0.4022(4) 0.1597(7) -0.0397(4)
H7A H -0.42070 0.11480 -0.03540
C4A C -0.4759(4) 0.2401(7) -0.0941(5)
C5A C -0.4963(4) 0.3130(7) -0.0894(5)
H8A H -0.47490 0.35650 -0.07450
C6A C -0.5493(4) 0.3234(7) -0.1069(5)
H9A H -0.56320 0.37350 -0.10380
C7A C -0.5801(4) 0.2590(7) -0.1284(5)
C8A C -0.5608(4) 0.1845(7) -0.1392(5)
H10A H -0.58270 0.14330 -0.15780
C9A C -0.5068(4) 0.1738(7) -0.1211(5)
H11A H -0.49240 0.12520 -0.12660
C10A C -0.6687(4) 0.3097(8) -0.1753(5)
H12A H -0.66220 0.34540 -0.20020
C11A C -0.7135(4) 0.2981(8) -0.1695(5)
H13A H -0.74410 0.32350 -0.18940
C12A C -0.6578(4) 0.2216(7) -0.1111(5)
H14A H -0.64260 0.18460 -0.08290
C13A C -0.2102(4) 0.0428(8) 0.0252(5)
H15A H -0.18900 0.04490 0.06230
C14A C -0.1938(4) 0.0270(7) -0.0167(4)
H16A H -0.16040 0.01910 -0.01560
C15A C -0.2769(4) 0.0441(7) -0.0451(4)
H17A H -0.31070 0.04860 -0.06840
C16A C -0.2411(4) 0.0150(7) -0.1195(4)
C17A C -0.2865(4) -0.0096(7) -0.1603(4)
H18A H -0.31440 -0.02340 -0.15000
C18A C -0.2904(4) -0.0138(7) -0.2150(4)
H19A H -0.32100 -0.03010 -0.24170
C19A C -0.2489(4) 0.0062(7) -0.2310(4)
C20A C -0.2040(4) 0.0290(7) -0.1916(4)
H20A H -0.17630 0.04260 -0.20240
C21A C -0.1990(4) 0.0321(7) -0.1358(4)
H21A H -0.16780 0.04560 -0.10920
C22A C -0.2300(4) 0.0564(8) -0.3141(4)
H22A H -0.20800 0.09870 -0.29760
C23A C -0.2456(4) 0.0332(7) -0.3690(4)
H23A H -0.23580 0.05840 -0.39630
C24A C -0.2810(4) -0.0457(7) -0.3285(4)
H24A H -0.30100 -0.08700 -0.32210
N1A N -0.3515(3) 0.1686(6) -0.0163(4)
N2A N -0.4224(3) 0.2254(6) -0.0702(4)
N3A N -0.6347(3) 0.2629(6) -0.1401(4)
N4A N -0.7064(3) 0.2426(6) -0.1298(4)
H32A H -0.72970 0.22350 -0.11810
N5A N -0.2615(3) 0.0556(6) 0.0082(4)
N6A N -0.2383(3) 0.0251(6) -0.0626(3)
N7A N -0.2532(3) 0.0048(6) -0.2891(3)
N8A N -0.2767(3) -0.0301(6) -0.3780(3)
Ni1D Ni -0.30962(4) -0.09641(8) -0.45030(5)
Ni1E Ni 0.30962(4) -0.09641(8) 0.95030(5)
N8D N -0.2767(3) 0.0301(6) 0.1220(3)
N8E N 0.2767(3) 0.0301(6) 0.3780(3)
#END
