
#######################################################################
#
#                 Cambridge Crystallographic Data Centre
#                                CCDC
#
#######################################################################
#
# If this CIF has been generated from an entry in the Cambridge
# Structural Database, then it will include bibliographic, chemical,
# crystal, experimental, refinement or atomic coordinate data resulting
# from the CCDC's data processing and validation procedures.
#
#######################################################################

data_CSD_CIF_ZERLIU
_audit_creation_date 2017-11-08
_audit_creation_method CSD-ConQuest-V1
_database_code_CSD ZERLIU
_database_code_depnum_ccdc_archive 'CCDC 1556190'
_chemical_formula_sum 'C72 H86 B2 N24 Ni2 O90 W24'
_chemical_formula_moiety
;
3(C12 H12 N4 2+),n(C36 H34 B2 N12 Ni2 O82 W24 6-),8(H2 O1)
;
_journal_coden_Cambridge 155
_journal_volume 471
_journal_year 2018
_journal_page_first 316
_journal_name_full 'Inorg.Chim.Acta '
loop_
_publ_author_name
"Zhenzhen He"
"Dan Ma"
"Bingran Cao"
"Xiaoqin Li"
"Ying Lu"
_chemical_name_systematic
;
catena-[tris(1,1'-(1,4-phenylene)di(1H-imidazol-3-ium)) 
hexacontakis(\m-oxo)-tris(\m-1,1'-(1,4-phenylene)di(1H-imidazole))-diaqua-icos
a-oxo-di-boron-di-nickel-tetracosa-tungsten octahydrate]
;
_cell_volume   3259.383
_exptl_crystal_colour 'yellow'
_exptl_crystal_density_diffrn 3.708
_exptl_crystal_description 'block'
_diffrn_ambient_temperature 294
_refine_special_details
;
C34,C35,C36,N11,N12 and C34A,C35A,C36A,N11A,N12A disordered over two sites 
with occupancies 0.60:0.40.
;
#These two values have been output from a single CSD field.
_refine_ls_R_factor_gt 0.0277
_refine_ls_wR_factor_gt 0.0277
_symmetry_cell_setting triclinic
_symmetry_space_group_name_H-M 'P -1'
_symmetry_Int_Tables_number 2
loop_
_symmetry_equiv_pos_site_id
_symmetry_equiv_pos_as_xyz
1 x,y,z
2 -x,-y,-z
_cell_length_a 13.5142(5)
_cell_length_b 15.0538(5)
_cell_length_c 17.9070(6)
_cell_angle_alpha 80.182(1)
_cell_angle_beta 76.351(1)
_cell_angle_gamma 67.581(1)
_cell_formula_units_Z 1
loop_
_atom_type_symbol
_atom_type_radius_bond
C 0.68
H 0.23
B 0.83
N 0.68
Ni 1.24
O 0.68
W 1.62
loop_
_atom_site_label
_atom_site_type_symbol
_atom_site_fract_x
_atom_site_fract_y
_atom_site_fract_z
B1 B 0.8230(7) 0.7568(6) 0.2370(5)
W1 W 1.09978(2) 0.60888(2) 0.20669(2)
W2 W 0.91602(2) 0.52145(2) 0.18921(2)
W3 W 0.67885(3) 0.82507(2) 0.08439(2)
W4 W 0.86964(3) 0.93600(2) 0.10009(2)
W5 W 0.74614(3) 0.99535(2) 0.27798(2)
W6 W 0.77761(3) 0.58320(2) 0.38464(2)
W7 W 0.97232(2) 0.68543(2) 0.05690(2)
W8 W 0.68366(3) 0.81180(2) 0.42227(2)
W9 W 0.62483(3) 0.66759(2) 0.22634(2)
W10 W 1.01087(3) 0.86200(2) 0.24231(2)
W11 W 0.54774(3) 0.89606(2) 0.25666(2)
W12 W 0.94932(3) 0.68771(2) 0.39715(2)
Ni1 Ni 0.93921(7) 0.26688(7) 0.15648(5)
O1 O 0.9615(5) 0.5595(4) 0.0833(3)
O2 O 0.9541(5) 0.1375(4) 0.1115(4)
H1 H 0.93500 0.09410 0.15310
H2 H 1.02800 0.10720 0.08600
O3 O 0.9617(4) 0.8123(4) 0.0629(3)
O4 O 0.8743(4) 0.5212(4) 0.2991(3)
O5 O 0.9333(4) 0.4041(4) 0.1799(3)
O6 O 1.0619(5) 0.5009(4) 0.2039(3)
O7 O 1.0293(4) 0.6772(4) -0.0400(3)
O8 O 1.0867(5) 0.7412(4) 0.2039(3)
O9 O 1.1042(4) 0.6350(4) 0.0964(3)
O10 O 0.8213(4) 0.7353(4) 0.0531(3)
O11 O 0.9953(4) 0.9268(4) 0.1427(3)
O12 O 0.7262(5) 0.9184(4) 0.3689(3)
O13 O 0.8914(4) 0.9735(4) 0.2837(3)
O14 O 0.8133(4) 0.7246(3) 0.3226(3)
O15 O 0.7840(4) 1.0328(4) 0.1677(3)
O16 O 0.9794(5) 0.7942(4) 0.3410(3)
O17 O 0.7512(4) 0.9137(4) 0.0846(3)
O18 O 0.6223(4) 0.7263(4) 0.1201(3)
O19 O 1.1140(5) 0.8938(4) 0.2557(4)
O20 O 0.9133(4) 0.6767(3) 0.1911(3)
O21 O 1.2358(5) 0.5538(4) 0.2060(4)
O22 O 0.7156(4) 0.7776(4) 0.2125(3)
O23 O 0.8519(4) 0.8473(3) 0.2196(3)
O24 O 1.0448(5) 0.6147(4) 0.3126(3)
O25 O 0.5835(5) 0.8451(4) 0.3569(3)
O26 O 0.5132(4) 0.7815(4) 0.2604(3)
O27 O 0.6345(5) 0.8621(5) -0.0009(3)
O28 O 0.4186(5) 0.9765(5) 0.2827(4)
O29 O 0.6673(5) 0.6251(4) 0.3223(3)
O30 O 0.7691(4) 0.5814(4) 0.1836(3)
O31 O 0.6270(5) 0.9766(4) 0.2517(3)
O32 O 0.5491(5) 0.5992(4) 0.2262(4)
O33 O 0.8898(5) 1.0094(4) 0.0182(3)
O34 O 0.8932(5) 0.5827(4) 0.4268(3)
O35 O 0.5545(4) 0.9119(4) 0.1486(3)
O36 O 1.0348(5) 0.6564(5) 0.4616(4)
O37 O 0.6793(5) 0.6864(4) 0.4482(3)
O38 O 0.8209(5) 0.7674(4) 0.4578(3)
O39 O 0.7478(5) 0.4897(5) 0.4398(4)
O40 O 0.6012(6) 0.8637(5) 0.5033(3)
O41 O 0.6840(5) 1.1086(4) 0.3086(4)
C1 C 1.7193(6) 0.2617(6) 0.1592(5)
H3 H 1.74710 0.19470 0.16210
C2 C 0.9469(7) 0.1446(6) 0.3128(5)
H4 H 0.98530 0.08670 0.29050
C3 C 0.9615(8) 0.0747(6) 0.4466(4)
C4 C 1.1663(6) 0.2567(6) 0.1510(5)
H5 H 1.14500 0.32360 0.14420
C5 C 1.4187(7) 0.3446(6) 0.1858(5)
H6 H 1.40420 0.40460 0.20200
C6 C 1.5243(6) 0.2848(6) 0.1623(5)
C7 C 1.3542(7) 0.2266(6) 0.1602(5)
C8 C 1.4624(7) 0.1657(6) 0.1366(5)
H7 H 1.47670 0.10570 0.12060
C9 C 1.3340(7) 0.3140(6) 0.1851(5)
H8 H 1.26240 0.35360 0.20180
C10 C 1.5466(7) 0.1947(6) 0.1372(5)
H9 H 1.61820 0.15490 0.12100
C11 C 0.9668(8) -0.0155(6) 0.4378(5)
H10 H 0.94280 -0.02530 0.39630
C12 C 0.9922(8) 0.0924(6) 0.5096(5)
H11 H 0.98530 0.15450 0.51640
C13 C 1.2686(7) 0.1035(6) 0.1653(5)
H12 H 1.32800 0.04680 0.17010
C14 C 1.1660(7) 0.1109(6) 0.1628(5)
H13 H 1.14240 0.05960 0.16650
C15 C 0.8595(9) 0.2945(6) 0.3281(5)
H14 H 0.82570 0.36060 0.31750
C16 C 0.8681(9) 0.2485(7) 0.3993(5)
H15 H 0.84140 0.27640 0.44590
C17 C 1.7059(8) 0.4095(6) 0.1515(6)
H16 H 1.72460 0.46380 0.14740
C18 C 1.6043(7) 0.4106(6) 0.1567(6)
H17 H 1.54090 0.46490 0.15740
N1 N 1.7778(5) 0.3157(5) 0.1533(4)
N2 N 0.9079(5) 0.2291(5) 0.2736(4)
N3 N 1.1016(5) 0.2092(5) 0.1537(4)
N4 N 1.6120(5) 0.3170(5) 0.1606(4)
N5 N 0.9237(6) 0.1532(5) 0.3892(4)
N6 N 1.2671(6) 0.1968(5) 0.1592(4)
O42 O 0.1747(15) 1.1922(10) 0.3531(9)
H18 H 0.14250 1.20550 0.30820
H19 H 0.12570 1.23170 0.39290
O43 O 0.8993(14) 0.6115(11) 0.6194(8)
H20 H 0.85040 0.63790 0.66520
H21 H 0.89540 0.55040 0.61470
O44 O 0.4091(12) 0.1615(8) 0.3418(6)
H22 H 0.33810 0.15770 0.34860
H23 H 0.44970 0.11400 0.37710
O45 O 1.7908(7) 0.5711(6) -0.0176(5)
H24 H 1.84800 0.52230 0.00540
H25 H 1.79350 0.63340 -0.01570
C19 C 1.4362(8) 0.5897(8) 0.0235(5)
C20 C 1.5475(8) 0.5677(9) -0.0041(6)
H26 H 1.57840 0.61420 -0.00710
C21 C 1.4000(12) 0.7440(12) 0.0790(11)
H27 H 1.46660 0.72870 0.09380
C22 C 1.2685(8) 0.7309(8) 0.0333(7)
H28 H 1.22850 0.70700 0.01170
C23 C 1.3888(8) 0.5220(9) 0.0268(6)
H29 H 1.31430 0.53740 0.04430
C24 C 1.3173(13) 0.8259(11) 0.0862(12)
H30 H 1.31510 0.87950 0.10680
N7 N 1.2352(8) 0.8189(8) 0.0584(6)
H31 H 1.17240 0.86350 0.05710
N8 N 1.3695(7) 0.6851(7) 0.0452(5)
C25 C 0.3307(13) 0.8851(12) 0.4806(8)
H32 H 0.37110 0.84850 0.51800
C26 C 0.2872(15) 0.9840(12) 0.4701(11)
H33 H 0.29210 1.02780 0.49870
C27 C 0.2952(13) 0.6288(10) 0.3699(7)
H34 H 0.25160 0.60910 0.34840
C28 C 0.4577(9) 0.5941(10) 0.4218(7)
H35 H 0.52210 0.54960 0.43540
C29 C 0.3929(14) 0.5626(7) 0.3905(7)
C30 C 0.2664(9) 0.7229(9) 0.3827(7)
H36 H 0.20150 0.76830 0.37060
C31 C 0.2479(9) 0.9255(8) 0.3816(7)
H37 H 0.22230 0.92220 0.33860
C32 C 0.4289(9) 0.6874(9) 0.4326(7)
H38 H 0.47300 0.70820 0.45270
C33 C 0.3330(8) 0.7509(8) 0.4134(6)
C34 C 0.498(2) 0.3157(12) 0.3547(14)
H39 H 0.55690 0.25920 0.34400
C35 C 0.3324(17) 0.4210(12) 0.3824(11)
H40 H 0.25660 0.44390 0.39190
C36 C 0.5056(18) 0.4012(14) 0.3595(16)
H41 H 0.56910 0.41400 0.35420
N9 N 0.3031(7) 0.8507(7) 0.4255(5)
N10 N 0.2361(10) 1.0046(8) 0.4098(7)
H42 H 0.20050 1.06200 0.39220
N11 N 0.4039(17) 0.4662(9) 0.3772(10)
N12 N 0.391(2) 0.3287(12) 0.3688(11)
H43 H 0.36400 0.28500 0.36900
C37? C 0.395(2) 0.405(2) 0.3812(17)
H44? H 0.31940 0.42850 0.38790
C38? C 0.5616(18) 0.4068(14) 0.3635(14)
H45? H 0.62360 0.42000 0.36300
C39? C 0.457(3) 0.3205(19) 0.365(2)
H46? H 0.44320 0.26720 0.35730
N13? N 0.571(2) 0.3177(13) 0.3518(14)
H47? H 0.63050 0.26970 0.33930
N14? N 0.4556(19) 0.4623(10) 0.3832(14)
C2A C 1.0531(7) -0.1446(6) 0.6872(5)
H4A H 1.01470 -0.08670 0.70950
C3A C 1.0385(8) -0.0747(6) 0.5534(4)
C11A C 1.0332(8) 0.0155(6) 0.5622(5)
H10A H 1.05720 0.02530 0.60370
C12A C 1.0078(8) -0.0924(6) 0.4904(5)
H11A H 1.01470 -0.15450 0.48360
C15A C 1.1405(9) -0.2945(6) 0.6719(5)
H14A H 1.17430 -0.36060 0.68250
C16A C 1.1319(9) -0.2485(7) 0.6007(5)
H15A H 1.15860 -0.27640 0.55410
N2A N 1.0921(5) -0.2291(5) 0.7264(4)
N5A N 1.0763(6) -0.1532(5) 0.6108(4)
B1A B 1.1770(7) -0.7568(6) 0.7630(5)
W1A W 0.90022(2) -0.60888(2) 0.79331(2)
W2A W 1.08398(2) -0.52145(2) 0.81079(2)
W3A W 1.32115(3) -0.82507(2) 0.91561(2)
W4A W 1.13036(3) -0.93600(2) 0.89991(2)
W5A W 1.25386(3) -0.99535(2) 0.72202(2)
W6A W 1.22239(3) -0.58320(2) 0.61536(2)
W7A W 1.02768(2) -0.68543(2) 0.94310(2)
W8A W 1.31634(3) -0.81180(2) 0.57773(2)
W9A W 1.37517(3) -0.66759(2) 0.77366(2)
W10A W 0.98913(3) -0.86200(2) 0.75769(2)
W11A W 1.45226(3) -0.89606(2) 0.74334(2)
W12A W 1.05068(3) -0.68771(2) 0.60285(2)
Ni1A Ni 1.06079(7) -0.26688(7) 0.84352(5)
O1A O 1.0385(5) -0.5595(4) 0.9167(3)
O2A O 1.0459(5) -0.1375(4) 0.8885(4)
H1A H 1.06500 -0.09410 0.84690
H2A H 0.97200 -0.10720 0.91400
O3A O 1.0383(4) -0.8123(4) 0.9371(3)
O4A O 1.1257(4) -0.5212(4) 0.7009(3)
O5A O 1.0667(4) -0.4041(4) 0.8201(3)
O6A O 0.9381(5) -0.5009(4) 0.7961(3)
O7A O 0.9707(4) -0.6772(4) 1.0400(3)
O8A O 0.9133(5) -0.7412(4) 0.7961(3)
O9A O 0.8958(4) -0.6350(4) 0.9036(3)
O10A O 1.1787(4) -0.7353(4) 0.9469(3)
O11A O 1.0047(4) -0.9268(4) 0.8573(3)
O12A O 1.2738(5) -0.9184(4) 0.6311(3)
O13A O 1.1086(4) -0.9735(4) 0.7163(3)
O14A O 1.1867(4) -0.7246(3) 0.6774(3)
O15A O 1.2160(4) -1.0328(4) 0.8323(3)
O16A O 1.0206(5) -0.7942(4) 0.6590(3)
O17A O 1.2488(4) -0.9137(4) 0.9154(3)
O18A O 1.3777(4) -0.7263(4) 0.8799(3)
O19A O 0.8860(5) -0.8938(4) 0.7443(4)
O20A O 1.0867(4) -0.6767(3) 0.8089(3)
O21A O 0.7642(5) -0.5538(4) 0.7940(4)
O22A O 1.2844(4) -0.7776(4) 0.7875(3)
O23A O 1.1481(4) -0.8473(3) 0.7804(3)
O24A O 0.9552(5) -0.6147(4) 0.6874(3)
O25A O 1.4165(5) -0.8451(4) 0.6431(3)
O26A O 1.4868(4) -0.7815(4) 0.7396(3)
O27A O 1.3655(5) -0.8621(5) 1.0009(3)
O28A O 1.5814(5) -0.9765(5) 0.7173(4)
O29A O 1.3327(5) -0.6251(4) 0.6777(3)
O30A O 1.2309(4) -0.5814(4) 0.8164(3)
O31A O 1.3730(5) -0.9766(4) 0.7483(3)
O32A O 1.4509(5) -0.5992(4) 0.7738(4)
O33A O 1.1102(5) -1.0094(4) 0.9818(3)
O34A O 1.1068(5) -0.5827(4) 0.5732(3)
O35A O 1.4455(4) -0.9119(4) 0.8514(3)
O36A O 0.9652(5) -0.6564(5) 0.5384(4)
O37A O 1.3207(5) -0.6864(4) 0.5518(3)
O38A O 1.1791(5) -0.7674(4) 0.5422(3)
O39A O 1.2522(5) -0.4897(5) 0.5602(4)
O40A O 1.3988(6) -0.8637(5) 0.4967(3)
O41A O 1.3160(5) -1.1086(4) 0.6914(4)
C1A C 0.2807(6) -0.2617(6) 0.8408(5)
H3A H 0.25290 -0.19470 0.83790
C4A C 0.8337(6) -0.2567(6) 0.8490(5)
H5A H 0.85500 -0.32360 0.85580
C5A C 0.5813(7) -0.3446(6) 0.8142(5)
H6A H 0.59580 -0.40460 0.79800
C6A C 0.4757(6) -0.2848(6) 0.8377(5)
C7A C 0.6458(7) -0.2266(6) 0.8398(5)
C8A C 0.5376(7) -0.1657(6) 0.8634(5)
H7A H 0.52330 -0.10570 0.87940
C9A C 0.6660(7) -0.3140(6) 0.8149(5)
H8A H 0.73760 -0.35360 0.79820
C10A C 0.4534(7) -0.1947(6) 0.8628(5)
H9A H 0.38180 -0.15490 0.87900
C13A C 0.7314(7) -0.1035(6) 0.8347(5)
H12A H 0.67200 -0.04680 0.82990
C14A C 0.8340(7) -0.1109(6) 0.8372(5)
H13A H 0.85760 -0.05960 0.83350
C17A C 0.2941(8) -0.4095(6) 0.8485(6)
H16A H 0.27540 -0.46380 0.85260
C18A C 0.3957(7) -0.4106(6) 0.8433(6)
H17A H 0.45910 -0.46490 0.84260
N1A N 0.2222(5) -0.3157(5) 0.8467(4)
N3A N 0.8984(5) -0.2092(5) 0.8463(4)
N4A N 0.3880(5) -0.3170(5) 0.8394(4)
N6A N 0.7329(6) -0.1968(5) 0.8408(4)
Ni1* Ni 0.93921(7) -0.73312(7) 1.15648(5)
Ni1** Ni 1.93921(7) 0.26688(7) 0.15648(5)
Ni1A* Ni 0.06079(7) -0.26688(7) 0.84352(5)
Ni1A** Ni 1.06079(7) 0.73312(7) -0.15648(5)
O7* O 1.0293(4) -0.3228(4) 0.9600(3)
O7A* O 0.9707(4) 0.3228(4) 0.0400(3)
N1* N 0.7778(5) 0.3157(5) 0.1533(4)
N1A* N 1.2222(5) -0.3157(5) 0.8467(4)
C19A C 1.5638(8) 0.4103(8) -0.0235(5)
C20A C 1.4525(8) 0.4323(9) 0.0041(6)
H26A H 1.42160 0.38580 0.00710
C21A C 1.6000(12) 0.2560(12) -0.0790(11)
H27A H 1.53340 0.27130 -0.09380
C22A C 1.7315(8) 0.2691(8) -0.0333(7)
H28A H 1.77150 0.29300 -0.01170
C23A C 1.6112(8) 0.4780(9) -0.0268(6)
H29A H 1.68570 0.46260 -0.04430
C24A C 1.6827(13) 0.1741(11) -0.0862(12)
H30A H 1.68490 0.12050 -0.10680
N7A N 1.7648(8) 0.1811(8) -0.0584(6)
H31A H 1.82760 0.13650 -0.05710
N8A N 1.6305(7) 0.3149(7) -0.0452(5)
#END
