
#######################################################################
#
#                 Cambridge Crystallographic Data Centre
#                                CCDC
#
#######################################################################
#
# If this CIF has been generated from an entry in the Cambridge
# Structural Database, then it will include bibliographic, chemical,
# crystal, experimental, refinement or atomic coordinate data resulting
# from the CCDC's data processing and validation procedures.
#
#######################################################################

data_CSD_CIF_ZERNOZ
_audit_creation_date 1996-08-20
_audit_creation_method CSD-ConQuest-V1
_database_code_CSD ZERNOZ
_database_code_depnum_ccdc_archive 'CCDC 1311305'
_chemical_formula_sum 'C4 H18 O18 P4 V3'
_chemical_formula_moiety
;
(C4 H10 O15 P4 V3 2-)n,n(H2 O1),2n(H3 O1 1+)
;
_journal_coden_Cambridge 1096
_journal_volume 7
_journal_year 1995
_journal_page_first 1648
_journal_name_full 'Chem.Mater. '
loop_
_publ_author_name
"V.Soghomonian"
"R.C.Haushalter"
"J.Zubieta"
_chemical_name_systematic
;
catena-(Dioxonium 
bis(\m~6~-ethane-1,2-diphosphonato)-(oxo-vanadium(iv))-bis(\m~2~-hydroxo)-di-v
anadium(iii) monohydrate)
;
_cell_volume    509.531
_exptl_crystal_colour 'blue green'
_exptl_crystal_density_diffrn 2.056
_exptl_special_details
;
Crystals are unstable at room temperature

;
_diffrn_ambient_temperature 233
_refine_special_details
;
The oxovanadium(iv) unit is disordered about the inversion centre.

;
#These two values have been output from a single CSD field.
_refine_ls_R_factor_gt 0.074
_refine_ls_wR_factor_gt 0.074
_symmetry_cell_setting triclinic
_symmetry_space_group_name_H-M 'P -1'
_symmetry_Int_Tables_number 2
loop_
_symmetry_equiv_pos_site_id
_symmetry_equiv_pos_as_xyz
1 x,y,z
2 -x,-y,-z
_cell_length_a 7.150(1)
_cell_length_b 7.809(2)
_cell_length_c 9.996(2)
_cell_angle_alpha 76.55(2)
_cell_angle_beta 70.17(2)
_cell_angle_gamma 88.91(2)
_cell_formula_units_Z 1
loop_
_atom_type_symbol
_atom_type_radius_bond
C 0.68
H 0.23
O 0.68
P 1.05
V 1.25
loop_
_atom_site_label
_atom_site_type_symbol
_atom_site_fract_x
_atom_site_fract_y
_atom_site_fract_z
O1 O 0.1257(25) 0.2914(22) 0.2425(18)
H1 H 0.18610 0.29030 0.14110
H2 H -0.00920 0.24210 0.27860
H3 H 0.19950 0.22260 0.29780
O2 O 0.1275(30) 0.6102(26) 0.2699(23)
H4 H 0.18830 0.68850 0.17520
H5 H 0.20170 0.62090 0.33190
H6 H -0.00690 0.64040 0.31270
O3 O -0.0429(80) 0.3685(68) 0.5453(62)
V1 V 0.00000 0.00000 0.00000
V2 V 0.50000 0.00000 0.00000
V3 V 0.4436(5) -0.0032(6) -0.4940(5)
P1 P 0.3310(4) -0.2439(3) -0.1561(3)
P2 P 0.3708(4) -0.7620(3) -0.2681(3)
O4 O 0.1173(11) -0.2007(9) -0.0853(8)
O5 O 0.4674(11) -0.2063(10) -0.0776(9)
O6 O 0.4132(18) -0.1502(10) -0.3177(9)
O7 O 0.1553(10) -0.8303(9) -0.1828(8)
O8 O 0.5089(11) -0.8353(10) -0.1854(9)
O9 O 0.4387(14) -0.7929(10) -0.4205(8)
O10 O 0.2302(26) -0.0113(23) -0.4950(17)
O11 O 0.2159(10) 0.0086(9) 0.0726(8)
C1 C 0.3268(19) -0.4800(13) -0.1386(11)
C2 C 0.3804(20) -0.5256(14) -0.2926(12)
H7 H 0.19630 -0.49010 -0.14440
H8 H 0.26510 -0.45770 -0.28090
H9 H 0.48590 -0.45940 -0.28420
H10? H 0.59180 0.56460 1.18320
P1A P -0.3310(4) 0.2439(3) 0.1561(3)
P2A P -0.3708(4) 0.7620(3) 0.2681(3)
O4A O -0.1173(11) 0.2007(9) 0.0853(8)
O5A O -0.4674(11) 0.2063(10) 0.0776(9)
O6A O -0.4132(18) 0.1502(10) 0.3177(9)
O7A O -0.1553(10) 0.8303(9) 0.1828(8)
O8A O -0.5089(11) 0.8353(10) 0.1854(9)
O9A O -0.4387(14) 0.7929(10) 0.4205(8)
C1A C -0.3268(19) 0.4800(13) 0.1386(11)
C2A C -0.3804(20) 0.5256(14) 0.2926(12)
H7A H -0.19630 0.49010 0.14440
H8A H -0.26510 0.45770 0.28090
H9A H -0.48590 0.45940 0.28420
O11A O -0.2159(10) -0.0086(9) -0.0726(8)
V3A V -0.4436(5) 0.0032(6) 0.4940(5)
O10A O 0.7698(26) 0.0113(23) -0.5050(17)
O7* O 0.1553(10) 0.1697(9) -0.1828(8)
O7A* O -0.1553(10) -0.1697(9) 0.1828(8)
O5A* O 0.5326(11) 0.2063(10) 0.0776(9)
O8* O 0.5089(11) 0.1647(10) -0.1854(9)
O8A* O 0.4911(11) -0.1647(10) 0.1854(9)
O11A* O 0.7841(10) -0.0086(9) -0.0726(8)
V3A* V 0.5564(5) 0.0032(6) -0.5060(5)
O6A* O 0.5868(18) 0.1502(10) -0.6823(9)
O9* O 0.4387(14) 0.2071(10) -0.4205(8)
O9A* O 0.5613(14) -0.2071(10) -0.5795(8)
V1* V 0.00000 -1.00000 0.00000
V2* V 0.50000 -1.00000 0.00000
V3* V 0.4436(5) -1.0032(6) -0.4940(5)
V3A** V 0.5564(5) -0.9968(6) -0.5060(5)
V2** V -0.50000 0.00000 0.00000
V3** V -0.5564(5) -0.0032(6) 0.5060(5)
V1** V 0.00000 1.00000 0.00000
V2*** V -0.50000 1.00000 0.00000
V3*** V -0.5564(5) 0.9968(6) 0.5060(5)
V3A*** V -0.4436(5) 1.0032(6) 0.4940(5)
O6* O -0.5868(18) -0.1502(10) 0.6823(9)
O9** O -0.5613(14) 0.2071(10) 0.5795(8)
O9A** O -0.4387(14) -0.2071(10) 0.4205(8)
O10* O -0.7698(26) -0.0113(23) 0.5050(17)
O10A* O -0.2302(26) 0.0113(23) 0.4950(17)
#END
