
#######################################################################
#
#                 Cambridge Crystallographic Data Centre
#                                CCDC
#
#######################################################################
#
# If this CIF has been generated from an entry in the Cambridge
# Structural Database, then it will include bibliographic, chemical,
# crystal, experimental, refinement or atomic coordinate data resulting
# from the CCDC's data processing and validation procedures.
#
#######################################################################

data_CSD_CIF_ZERQUK
_audit_creation_date 2013-05-20
_audit_creation_method CSD-ConQuest-V1
_database_code_CSD ZERQUK
_database_code_depnum_ccdc_archive 'CCDC 900044'
_chemical_formula_sum 'C106 H144 Cl4 Cr4 Fe4 Mn4 N16 O50'
_chemical_formula_moiety
;
(C12 Cr4 Mn4 O24 4-)n,6n(H2 O1),4n(C22 H28 Fe1 N4 O4 1+),4n(C1 H4 O1),2n(C1 
H2 Cl2)
;
_journal_coden_Cambridge 1290
_journal_year 2013
_journal_page_first 753
_journal_name_full 'Eur.J.Inorg.Chem. '
loop_
_publ_author_name
"M.Clemente-Leon"
"E.Coronado"
"M.Lopez-Jorda"
_chemical_name_systematic
;
catena-[bis((2,2'-(2,5,8,11-Tetraazadodeca-1,11-diene-1,12-diyl)bis(6-methoxyp
henolato)-iron hexakis(\m~2~-oxalato)-di-chromium-di-manganese acetonitrile 
solvate]
;
_cell_volume   4545.108
_exptl_crystal_colour 'black'
_exptl_crystal_density_diffrn 1.365
_exptl_crystal_description 'prism'
_diffrn_ambient_temperature 120
_refine_special_details
;
C16A,C17A,C18A,C19A and C16B,C17B,C18B,C19B disordered over two sites with 
occupancies 0.526:0.474; C1D,Cl1A,Cl2, Cl1B disordered over two 
configurations with occupancies 0.50,0.25,0.50, 0.25.
;
#These two values have been output from a single CSD field.
_refine_ls_R_factor_gt 0.0771
_refine_ls_wR_factor_gt 0.0771
_symmetry_cell_setting monoclinic
_symmetry_space_group_name_H-M 'P 21/n'
_symmetry_Int_Tables_number 14
loop_
_symmetry_equiv_pos_site_id
_symmetry_equiv_pos_as_xyz
1 x,y,z
2 1/2-x,1/2+y,1/2-z
3 -x,-y,-z
4 -1/2+x,-1/2-y,-1/2+z
_cell_length_a 16.8977(13)
_cell_length_b 16.0300(8)
_cell_length_c 18.7421(12)
_cell_angle_alpha 90
_cell_angle_beta 116.454(9)
_cell_angle_gamma 90
_cell_formula_units_Z 1
loop_
_atom_type_symbol
_atom_type_radius_bond
C 0.68
H 0.23
Cl 0.99
Cr 1.39
Fe 1.52
Mn 1.61
N 0.68
O 0.68
loop_
_atom_site_label
_atom_site_type_symbol
_atom_site_fract_x
_atom_site_fract_y
_atom_site_fract_z
C1 C 0.7918(4) 0.9813(3) 0.3527(3)
C2 C 0.7135(4) 0.9525(4) 0.3557(3)
C3 C 0.6994(5) 0.9678(5) 0.4221(4)
H1 H 0.64680 0.94870 0.42330
C4 C 0.7628(5) 1.0112(6) 0.4874(4)
H2 H 0.75400 1.02040 0.53340
C5 C 0.8379(4) 1.0406(5) 0.4847(3)
H3 H 0.87980 1.07160 0.52840
C6 C 0.8536(3) 1.0253(3) 0.4181(3)
C7 C 0.9304(3) 1.0620(3) 0.4195(3)
H4 H 0.96780 1.09110 0.46670
C8 C 1.0332(4) 1.1081(4) 0.3761(3)
H5 H 1.07990 1.09930 0.43110
H6 H 1.01860 1.16830 0.36920
C9 C 1.0664(4) 1.0806(4) 0.3168(3)
H7 H 1.10680 1.12310 0.31280
H8 H 1.09890 1.02710 0.33380
C10 C 0.9428(4) 1.1504(4) 0.2026(4)
H9 H 0.93960 1.18660 0.24400
H10 H 0.97660 1.18010 0.17880
C11 C 0.8522(4) 1.1315(4) 0.1401(4)
H11 H 0.81990 1.18400 0.11720
H12 H 0.85530 1.09870 0.09660
C12 C 0.7303(4) 1.0366(4) 0.1181(3)
H13 H 0.69050 1.07430 0.07540
H14 H 0.69650 1.01150 0.14440
C13 C 0.7649(4) 0.9677(4) 0.0824(3)
H15 H 0.71950 0.92380 0.05800
H16 H 0.77910 0.99120 0.04070
C14 C 0.8835(4) 0.8738(3) 0.1305(3)
H17 H 0.86070 0.85870 0.07590
C15 C 0.9592(5) 0.8271(4) 0.1855(3)
C16 C 1.0088(9) 0.7727(7) 0.1564(7)
H18 H 0.99170 0.76990 0.10080
C17 C 1.0777(9) 0.7270(8) 0.2068(7)
H19 H 1.10450 0.68880 0.18540
C18 C 1.1112(9) 0.7338(6) 0.2893(6)
H20 H 1.15840 0.69900 0.32330
C19 C 1.0722(11) 0.7963(10) 0.3243(10)
C20 C 0.9976(4) 0.8418(3) 0.2665(3)
C21 C 0.5740(4) 0.8843(5) 0.2880(4)
H21 H 0.53810 0.85560 0.23770
H22 H 0.54180 0.93300 0.29300
H23 H 0.58650 0.84620 0.33270
C22 C 1.1646(5) 0.7502(4) 0.4507(4)
H24 H 1.17900 0.76790 0.50520
H25 H 1.21740 0.75460 0.44180
H26 H 1.14420 0.69220 0.44320
N1 N 0.9549(3) 1.0603(3) 0.3638(2)
N2 N 0.9875(3) 1.0704(3) 0.2387(2)
H27 H 1.00410 1.04350 0.20350
N3 N 0.8062(3) 1.0838(3) 0.1767(3)
H28 H 0.78670 1.12000 0.20430
N4 N 0.8441(3) 0.9325(3) 0.1467(2)
O1 O 0.8026(2) 0.9636(2) 0.2886(2)
O2 O 0.6554(3) 0.9108(3) 0.2891(2)
O3 O 1.0970(3) 0.8020(3) 0.3957(2)
O4 O 0.9709(2) 0.8990(2) 0.2991(2)
Fe1 Fe 0.89314(5) 0.99238(5) 0.25814(4)
C23? C 0.9669(12) 0.7478(10) 0.1543(9)
H29? H 0.92910 0.73380 0.10050
C24? C 1.0272(14) 0.6940(12) 0.2010(11)
H30? H 1.04120 0.64460 0.18100
C25? C 1.0676(16) 0.7142(13) 0.2797(12)
H31? H 1.10390 0.67230 0.31500
C26? C 1.0624(11) 0.7811(11) 0.3104(10)
C27 C 0.1310(3) 0.2459(3) 0.1648(3)
C28 C 0.1357(3) 0.2494(3) 0.0843(3)
C29 C 0.2189(4) -0.0254(3) 0.2514(3)
C30 C 0.2943(4) 0.0140(3) 0.2367(3)
C31 C 0.0365(3) 0.5268(3) -0.0026(3)
C32 C 0.0331(3) -0.0223(3) -0.0118(3)
O5 O 0.1214(2) 0.3135(2) 0.19270(18)
O6 O 0.1368(2) 0.1745(2) 0.19410(17)
O7 O 0.1318(2) 0.3207(2) 0.05473(18)
O8 O 0.1386(2) 0.1812(2) 0.05295(18)
O9 O 0.1404(3) -0.0082(2) 0.2019(2)
O10 O 0.2413(3) -0.0715(2) 0.3113(2)
O11 O 0.2704(3) 0.0603(2) 0.1766(2)
O12 O 0.3713(3) -0.0043(2) 0.2848(3)
O13 O 0.1135(2) 0.5133(2) 0.0494(2)
O14 O 0.0128(2) 0.5790(2) -0.0584(2)
O15 O 0.1133(2) -0.0056(2) 0.0285(2)
O16 O 0.0013(2) -0.0723(2) -0.0685(2)
Mn1 Mn 0.12336(5) 0.41612(5) 0.12615(4)
Cr1 Cr 0.12336(5) 0.41612(5) 0.12615(4)
Mn2 Mn 0.13640(6) 0.07924(5) 0.11943(4)
Cr2 Cr 0.13640(6) 0.07924(5) 0.11943(4)
Cl1 Cl 0.6663(4) 0.1697(5) 0.9106(3)
Cl2 Cl 0.8108(6) 0.2883(5) 0.9474(4)
C33 C 0.7700(14) 0.1907(11) 0.8957(13)
H32 H 0.81410 0.14560 0.91940
H33 H 0.75490 0.19590 0.83840
Cl3? Cl 0.8655(10) 0.2563(8) 0.9699(8)
O17 O 0.7542(6) 0.1785(4) 0.2809(4)
C34 C 0.6766(9) 0.1613(8) 0.2934(8)
O18 O 0.0531(5) 0.1961(5) 0.5650(4)
C35 C 0.1286(7) 0.2245(6) 0.5975(5)
O19 O 0.9717(10) 0.335(2) 0.4506(13)
O20 O 0.8133(6) 0.3274(4) 0.3326(4)
O21 O 0.9693(8) 0.4593(7) 0.5851(12)
C31B C -0.0365(3) 0.4732(3) 0.0026(3)
O13B O -0.1135(2) 0.4867(2) -0.0494(2)
O14B O -0.0128(2) 0.4210(2) 0.0584(2)
C32B C -0.0331(3) 0.0223(3) 0.0118(3)
O15B O -0.1133(2) 0.0056(2) -0.0285(2)
O16B O -0.0013(2) 0.0723(2) 0.0685(2)
C27B C -0.1310(3) -0.2459(3) -0.1648(3)
C28B C -0.1357(3) -0.2494(3) -0.0843(3)
C29B C -0.2189(4) 0.0254(3) -0.2514(3)
C30B C -0.2943(4) -0.0140(3) -0.2367(3)
O5B O -0.1214(2) -0.3135(2) -0.19270(18)
O6B O -0.1368(2) -0.1745(2) -0.19410(17)
O7B O -0.1318(2) -0.3207(2) -0.05473(18)
O8B O -0.1386(2) -0.1812(2) -0.05295(18)
O9B O -0.1404(3) 0.0082(2) -0.2019(2)
O10B O -0.2413(3) 0.0715(2) -0.3113(2)
O11B O -0.2704(3) -0.0603(2) -0.1766(2)
O12B O -0.3713(3) 0.0043(2) -0.2848(3)
Mn1B Mn -0.12336(5) -0.41612(5) -0.12615(4)
Cr1B Cr -0.12336(5) -0.41612(5) -0.12615(4)
Mn2B Mn -0.13640(6) -0.07924(5) -0.11943(4)
Cr2B Cr -0.13640(6) -0.07924(5) -0.11943(4)
O10A O 0.2587(3) 0.4285(2) 0.1887(2)
O10C O -0.2587(3) -0.4285(2) -0.1887(2)
O12A O 0.1287(3) 0.4957(2) 0.2152(3)
O12C O -0.1287(3) -0.4957(2) -0.2152(3)
O13B* O -0.1135(2) -0.5133(2) -0.0494(2)
O14* O 0.0128(2) -0.4210(2) -0.0584(2)
Mn1A Mn 0.37664(5) -0.08388(5) 0.37385(4)
Mn1B* Mn -0.12336(5) 0.58388(5) -0.12615(4)
Mn1C Mn -0.37664(5) 0.08388(5) -0.37385(4)
Cr1A Cr 0.37664(5) -0.08388(5) 0.37385(4)
Cr1B* Cr -0.12336(5) 0.58388(5) -0.12615(4)
Cr1C Cr -0.37664(5) 0.08388(5) -0.37385(4)
#END
