
#######################################################################
#
#                 Cambridge Crystallographic Data Centre
#                                CCDC
#
#######################################################################
#
# If this CIF has been generated from an entry in the Cambridge
# Structural Database, then it will include bibliographic, chemical,
# crystal, experimental, refinement or atomic coordinate data resulting
# from the CCDC's data processing and validation procedures.
#
#######################################################################

data_CSD_CIF_ZERREV
_audit_creation_date 2013-05-20
_audit_creation_method CSD-ConQuest-V1
_database_code_CSD ZERREV
_database_code_depnum_ccdc_archive 'CCDC 900042'
_chemical_formula_sum 'C60 H56 Br4 Cr2 Fe2 Mn2 N12 O28'
_chemical_formula_moiety
;
2(C20 H22 Br2 Fe1 N4 O2 1+),n(C12 Cr2 Mn2 O24 2-),4(C2 H3 N1)
;
_journal_coden_Cambridge 1290
_journal_year 2013
_journal_page_first 753
_journal_name_full 'Eur.J.Inorg.Chem. '
loop_
_publ_author_name
"M.Clemente-Leon"
"E.Coronado"
"M.Lopez-Jorda"
_chemical_name_systematic
;
catena-[bis(2,2'-(2,5,8,11-Tetraazadodeca-1,11-diene-1,12-diyl)bis(6-bromophen
olato))-iron(iii) hexakis(\m~2~-oxalato)-di-chromium(iii)-di-manganese(ii) 
acetonitrile solvate]
;
_cell_volume   1867.717
_exptl_crystal_colour 'black'
_exptl_crystal_density_diffrn 1.812
_exptl_crystal_description 'plate'
_diffrn_ambient_temperature 120
#These two values have been output from a single CSD field.
_refine_ls_R_factor_gt 0.0413
_refine_ls_wR_factor_gt 0.0413
_symmetry_cell_setting triclinic
_symmetry_space_group_name_H-M 'P -1'
_symmetry_Int_Tables_number 2
loop_
_symmetry_equiv_pos_site_id
_symmetry_equiv_pos_as_xyz
1 x,y,z
2 -x,-y,-z
_cell_length_a 9.4310(6)
_cell_length_b 12.8070(8)
_cell_length_c 16.068(1)
_cell_angle_alpha 101.392(5)
_cell_angle_beta 96.264(5)
_cell_angle_gamma 97.548(5)
_cell_formula_units_Z 1
loop_
_atom_type_symbol
_atom_type_radius_bond
C 0.68
H 0.23
Br 1.21
Cr 1.39
Fe 1.52
Mn 1.61
N 0.68
O 0.68
loop_
_atom_site_label
_atom_site_type_symbol
_atom_site_fract_x
_atom_site_fract_y
_atom_site_fract_z
C1 C 0.8487(3) 0.0514(2) 0.70876(18)
C2 C 0.9326(3) 0.0035(2) 0.64869(19)
C3 C 1.0279(3) 0.0643(3) 0.61051(19)
H1 H 1.08300 0.02950 0.57050
C4 C 1.0430(3) 0.1756(3) 0.6306(2)
H2 H 1.11020 0.21750 0.60560
C5 C 0.9600(3) 0.2255(3) 0.6870(2)
H3 H 0.96990 0.30190 0.70010
C6 C 0.8615(3) 0.1654(2) 0.72518(19)
C7 C 0.7673(3) 0.2235(2) 0.77562(19)
H4 H 0.78640 0.30010 0.78670
C8 C 0.5675(3) 0.2547(2) 0.84722(19)
H5 H 0.50890 0.28020 0.80260
H6 H 0.62830 0.31820 0.88610
C9 C 0.4686(3) 0.1956(2) 0.89770(19)
H7 H 0.52100 0.19580 0.95460
H8 H 0.38370 0.23240 0.90650
C10 C 0.3193(3) 0.0717(3) 0.76914(19)
H9 H 0.35650 0.12280 0.73480
H10 H 0.22350 0.08730 0.78310
C11 C 0.3070(3) -0.0437(3) 0.7192(2)
H11 H 0.26580 -0.09470 0.75250
H12 H 0.24310 -0.05440 0.66410
C12 C 0.4696(4) -0.1781(3) 0.68036(19)
H13 H 0.55850 -0.18560 0.65370
H14 H 0.38600 -0.21830 0.63840
C13 C 0.4773(3) -0.2240(2) 0.76050(19)
H15 H 0.38090 -0.23300 0.77960
H16 H 0.50950 -0.29540 0.74870
C14 C 0.6564(3) -0.1856(2) 0.88283(18)
H17 H 0.64610 -0.26170 0.87560
C15 C 0.7546(3) -0.1216(2) 0.95468(18)
C16 C 0.8420(3) -0.1746(2) 1.00429(19)
H18 H 0.83840 -0.25040 0.98740
C17 C 0.9319(3) -0.1183(2) 1.07645(19)
H19 H 0.99320 -0.15450 1.10790
C18 C 0.9333(3) -0.0076(2) 1.10363(19)
H20 H 0.99420 0.03110 1.15430
C19 C 0.8475(3) 0.0457(2) 1.05772(18)
C20 C 0.7610(3) -0.0077(2) 0.97968(18)
N1 N 0.6603(2) 0.18050(19) 0.80674(14)
N2 N 0.4205(2) 0.0828(2) 0.84893(15)
H21 H 0.37640 0.04310 0.88430
N3 N 0.4541(3) -0.0625(2) 0.70363(16)
H22 H 0.47660 -0.03130 0.65820
N4 N 0.5812(3) -0.14780(19) 0.82744(15)
O1 O 0.7639(2) -0.00834(15) 0.74659(12)
O2 O 0.6887(2) 0.04717(15) 0.93390(12)
Fe1 Fe 0.61158(4) 0.01603(3) 0.81482(3)
Br1 Br 0.90877(4) -0.14843(3) 0.61686(2)
Br2 Br 0.84242(3) 0.19428(2) 1.097501(19)
C21 C 0.4647(4) 0.4492(2) 0.46575(19)
C22 C 0.0322(3) 0.5530(2) 0.48743(17)
C23 C 0.2081(3) 0.5367(2) 0.75208(18)
C24 C 0.2794(3) 0.4332(2) 0.74238(19)
C25 C 0.4722(3) 0.4512(2) 1.01839(17)
C26 C -0.0359(3) 0.4448(2) 0.97134(18)
O3 O 0.3427(2) 0.40411(17) 0.47711(13)
O4 O 0.5346(2) 0.41952(17) 0.40605(13)
O5 O 0.3162(2) 0.39905(17) 0.67055(14)
O6 O 0.2910(2) 0.39239(16) 0.80696(14)
O7 O 0.1980(2) 0.57937(16) 0.68784(13)
O8 O 0.1669(2) 0.57032(16) 0.82217(13)
O9 O -0.1587(2) 0.40834(16) 0.98688(13)
O10 O 0.0337(2) 0.40064(16) 0.91603(13)
O11 O 0.3409(2) 0.41359(16) 0.99868(12)
O12 O 0.5627(2) 0.41708(15) 1.06513(13)
O13 O 0.1657(2) 0.58206(16) 0.50688(12)
O14 O -0.0552(2) 0.59915(16) 0.44917(13)
Cr1 Cr 0.26236(5) 0.48800(4) 0.58093(3)
Mn1 Mn 0.23259(5) 0.49001(3) 0.91560(3)
N5 N 0.7141(7) 0.4863(4) 0.7805(5)
C27 C 0.7758(6) 0.5558(4) 0.7572(3)
C28 C 0.8476(4) 0.6423(3) 0.7274(2)
H23 H 0.86320 0.70800 0.77270
H24 H 0.78830 0.65360 0.67690
H25 H 0.94090 0.62530 0.71200
N6 N 0.4643(10) 0.0780(5) 0.5787(4)
C29 C 0.5018(10) 0.1556(7) 0.5748(5)
C30 C 0.5970(8) 0.2718(7) 0.5789(4)
H26 H 0.69810 0.26330 0.57590
H27 H 0.58990 0.32110 0.63290
H28 H 0.56040 0.30150 0.53060
Mn2? Mn 0.26236(5) 0.48800(4) 0.58093(3)
Cr2? Cr 0.23259(5) 0.49001(3) 0.91560(3)
C21A C 0.5353(4) 0.5508(2) 0.53425(19)
O3A O 0.6573(2) 0.59589(17) 0.52289(13)
O4A O 0.4654(2) 0.58048(17) 0.59395(13)
C22A C -0.0322(3) 0.4470(2) 0.51257(17)
O13A O -0.1657(2) 0.41794(16) 0.49312(12)
O14A O 0.0552(2) 0.40085(16) 0.55083(13)
C25A C 0.5278(3) 0.5488(2) 0.98161(17)
O11A O 0.6591(2) 0.58641(16) 1.00132(12)
O12A O 0.4373(2) 0.58292(15) 0.93487(13)
C26A C 0.0359(3) 0.5552(2) 1.02866(18)
O9A O 0.1587(2) 0.59166(16) 1.01312(13)
O10A O -0.0337(2) 0.59936(16) 1.08397(13)
C23A C -0.2081(3) 0.4633(2) 0.24792(18)
C24A C -0.2794(3) 0.5668(2) 0.25762(19)
O5A O -0.3162(2) 0.60095(17) 0.32945(14)
O6A O -0.2910(2) 0.60761(16) 0.19304(14)
O7A O -0.1980(2) 0.42063(16) 0.31216(13)
O8A O -0.1669(2) 0.42968(16) 0.17783(13)
Cr1A Cr -0.26236(5) 0.51200(4) 0.41907(3)
Mn1A Mn -0.23259(5) 0.50999(3) 0.08440(3)
O3A* O -0.3427(2) 0.59589(17) 0.52289(13)
O4* O -0.4654(2) 0.41952(17) 0.40605(13)
O9* O -0.1587(2) 0.40834(16) -0.01312(13)
O10A* O -0.0337(2) 0.59936(16) 0.08397(13)
O11A* O -0.3409(2) 0.58641(16) 0.00132(12)
O12* O -0.4373(2) 0.41708(15) 0.06513(13)
Cr1A* Cr 0.73764(5) 0.51200(4) 0.41907(3)
Mn1A* Mn -0.23259(5) 0.50999(3) 1.08440(3)
Mn1A** Mn 0.76741(5) 0.50999(3) 1.08440(3)
#END
