
#######################################################################
#
#                 Cambridge Crystallographic Data Centre
#                                CCDC
#
#######################################################################
#
# If this CIF has been generated from an entry in the Cambridge
# Structural Database, then it will include bibliographic, chemical,
# crystal, experimental, refinement or atomic coordinate data resulting
# from the CCDC's data processing and validation procedures.
#
#######################################################################

data_CSD_CIF_ZESFEK
_audit_creation_date 2013-05-20
_audit_creation_method CSD-ConQuest-V1
_database_code_CSD ZESFEK
_database_code_depnum_ccdc_archive 'CCDC 899889'
_chemical_formula_sum 'C30 H37 Cu5 N20 O44.5 P1 W12'
_chemical_formula_moiety
;
(C30 H30 Cu5 N20 5+)n,n(O40 P1 W12 3-),2n(H1 O1 1-),2.5n(H2 O1)
;
_journal_coden_Cambridge 1295
_journal_volume 28
_journal_year 2013
_journal_page_first 85
_journal_name_full 'Inorg.Chem.Commun. '
loop_
_publ_author_name
"Zhenyu Shi"
"Jun Peng"
"Xia Yu"
"Yan Shen"
"Zheyu Zhang"
"K.Alimaje"
"Xiang Wang"
_chemical_name_systematic
;
catena-(pentakis(\m~2~-2,2'-Imidazole)-penta-copper 
(\m~12~-phosphato)-tetracosakis(\m~2~-oxo)-dodecaoxo-dodeca-tungsten 
dihydroxide hydrate)
;
_cell_volume   6995.610
_exptl_crystal_colour 'red'
_exptl_crystal_density_diffrn 3.754
_exptl_crystal_description 'prism'
_diffrn_ambient_temperature 293
_refine_special_details
;
The phosphate moieties are disordered by symmetry.

;
#These two values have been output from a single CSD field.
_refine_ls_R_factor_gt 0.0888
_refine_ls_wR_factor_gt 0.0888
_symmetry_cell_setting monoclinic
_symmetry_space_group_name_H-M 'P 2/c'
_symmetry_Int_Tables_number 13
loop_
_symmetry_equiv_pos_site_id
_symmetry_equiv_pos_as_xyz
1 x,y,z
2 -x,y,1/2-z
3 -x,-y,-z
4 x,-y,-1/2+z
_cell_length_a 20.722(5)
_cell_length_b 16.844(5)
_cell_length_c 23.235(4)
_cell_angle_alpha 90
_cell_angle_beta 120.391(15)
_cell_angle_gamma 90
_cell_formula_units_Z 4
loop_
_atom_type_symbol
_atom_type_radius_bond
C 0.68
H 0.23
Cu 1.32
N 0.68
O 0.68
P 1.05
W 1.62
loop_
_atom_site_label
_atom_site_type_symbol
_atom_site_fract_x
_atom_site_fract_y
_atom_site_fract_z
W1 W 0.54552(8) -0.19054(8) 0.07534(8)
P1 P 0.50000 0.00000 0.00000
O1 O 0.5617(12) -0.2793(14) 0.1097(10)
W2 W 0.61045(8) -0.13348(8) -0.03310(7)
O2 O 0.6204(17) 0.2526(14) 0.1449(14)
W3 W 0.62685(7) -0.01822(8) 0.17434(6)
O3 O 0.6926(12) -0.0042(14) 0.1404(11)
W4 W 0.56557(8) 0.05762(8) -0.10832(7)
O4 O 0.6867(13) -0.0266(17) 0.2567(12)
W5 W 0.69360(6) 0.03873(8) 0.06545(6)
O5 O 0.6633(12) -0.1947(13) -0.0485(11)
W6 W 0.58305(7) 0.17264(7) 0.09828(6)
O6 O 0.567(2) -0.002(2) -0.0132(18)
O7 O 0.6603(13) 0.1332(15) 0.0868(14)
O8 O 0.653(2) 0.0750(15) -0.0212(13)
O9 O 0.6164(14) -0.1268(16) 0.1424(12)
O10 O 0.522(2) -0.044(2) 0.0648(18)
O11 O 0.5931(13) 0.0840(16) -0.1618(11)
O12 O 0.4663(13) -0.212(2) -0.0116(13)
O13 O 0.5137(13) -0.169(2) -0.0885(13)
O14 O 0.4693(15) -0.1588(13) 0.0889(19)
O15 O 0.6081(13) -0.186(2) 0.0383(14)
O16 O 0.567(2) 0.038(2) 0.0583(18)
O17 O 0.7853(12) 0.0561(14) 0.0974(14)
O18 O 0.5067(18) -0.086(2) -0.0146(16)
O19 O 0.592(2) -0.0527(16) -0.0956(15)
O20 O 0.685(2) -0.0622(15) 0.0304(12)
O21 O 0.6132(15) 0.0920(13) 0.1649(14)
O22 O 0.5329(13) -0.0155(17) 0.1664(14)
C1 C 0.692(4) -0.508(5) 0.212(3)
H1 H 0.74350 -0.51390 0.23050
C2 C 0.654(2) -0.446(3) 0.181(2)
H2 H 0.67230 -0.39840 0.17510
C3 C 0.390(4) -0.602(3) 0.148(2)
H3 H 0.33990 -0.59800 0.13520
C4 C 0.576(3) -0.529(3) 0.180(2)
C5 C 0.511(3) -0.573(2) 0.1702(17)
C6 C 0.3528(19) -0.499(2) -0.0172(17)
C7 C 0.401(2) -0.621(2) -0.007(2)
H4 H 0.43490 -0.66180 0.00140
C8 C 0.326(2) -0.631(2) -0.025(2)
H5 H 0.29900 -0.67770 -0.03560
C9 C 0.2931(18) -0.303(2) -0.0264(16)
H6 H 0.25730 -0.26250 -0.04270
C10 C 0.3634(17) -0.2968(19) 0.0240(15)
H7 H 0.38540 -0.25020 0.04710
C11 C 0.3461(17) -0.4186(19) -0.0093(15)
C12 C 0.435(4) -0.666(5) 0.157(4)
H8 H 0.41840 -0.71710 0.15670
C13 C 0.373(4) -0.239(4) 0.236(3)
H9 H 0.33870 -0.21010 0.24240
C14 C 0.464(2) -0.277(2) 0.2431(19)
C15 C 0.352(3) -0.307(4) 0.206(2)
H10 H 0.30450 -0.32850 0.18400
N1 N 0.645(3) -0.567(5) 0.215(3)
H11 H 0.65530 -0.61340 0.23220
N2 N 0.414(2) -0.340(2) 0.2130(19)
N3 N 0.449(2) -0.5403(18) 0.1664(17)
N4 N 0.5774(17) -0.463(2) 0.1587(15)
N5 N 0.3018(16) -0.5574(18) -0.0250(14)
H12 H 0.25900 -0.54740 -0.02910
N6 N 0.4140(16) -0.5420(19) -0.0052(18)
N7 N 0.2843(13) -0.3754(17) -0.0483(12)
H13 H 0.24470 -0.39330 -0.08270
N8 N 0.3997(13) -0.3706(15) 0.0376(14)
N9 N 0.501(4) -0.655(3) 0.165(2)
H14 H 0.53190 -0.68980 0.16620
N10 N 0.431(3) -0.215(3) 0.254(2)
H15 H 0.44870 -0.16870 0.27130
Cu1 Cu 0.4315(3) -0.4351(3) 0.1816(3)
Cu2 Cu 0.4939(2) -0.4004(3) 0.1005(2)
Cu3 Cu 0.50000 -0.50000 0.00000
Cu4 Cu 1.00000 0.00000 0.00000
C16 C 0.846(4) -0.161(3) -0.029(3)
H16 H 0.82640 -0.21250 -0.03470
C17 C 1.174(3) 0.083(3) 0.207(2)
H17 H 1.22340 0.10020 0.23090
C18 C 0.918(4) -0.143(3) -0.005(3)
H18 H 0.95920 -0.17680 0.01100
C19 C 0.849(2) -0.031(2) -0.035(2)
C20 C 0.752(2) 0.150(3) -0.083(2)
H19 H 0.71050 0.18200 -0.11020
C21 C 0.959(3) -0.158(2) 0.155(2)
H20 H 0.94630 -0.21150 0.14750
C22 C 0.917(2) -0.099(2) 0.1569(19)
H21 H 0.87090 -0.10530 0.15350
C23 C 0.8243(19) 0.051(2) -0.0399(19)
C24 C 1.116(2) 0.121(2) 0.1636(19)
H22 H 1.11890 0.17040 0.14670
C25 C 0.8148(19) 0.174(2) -0.0281(17)
H23 H 0.82490 0.22470 -0.01050
C26 C 0.851(2) 0.280(2) 0.2124(19)
H24 H 0.81380 0.31350 0.20870
C27 C 1.015(2) -0.0461(19) 0.1683(17)
C28 C 1.0714(18) 0.0154(18) 0.1737(15)
C29 C 0.842(2) 0.203(2) 0.1898(17)
H25 H 0.79660 0.17610 0.16770
C30 C 0.9610(19) 0.228(2) 0.2387(18)
N11 N 0.808(3) -0.097(3) -0.041(2)
H26 H 0.76150 -0.09570 -0.05180
N12 N 0.758(2) 0.073(2) -0.0924(18)
H27 H 0.72690 0.04420 -0.12500
N13 N 0.915(2) -0.061(2) -0.0121(19)
N14 N 0.8602(13) 0.1114(15) -0.0031(13)
N15 N 1.1467(14) 0.008(2) 0.2111(16)
H28 H 1.17190 -0.03330 0.23230
N16 N 1.0247(19) -0.124(2) 0.1668(16)
H29 H 1.06400 -0.14760 0.17200
N17 N 1.0491(14) 0.0843(16) 0.1444(13)
N18 N 0.9536(15) -0.0270(18) 0.1647(13)
N19 N 0.9253(17) 0.2971(19) 0.2414(15)
H30 H 0.94610 0.34190 0.25820
N20 N 0.9117(13) 0.1739(15) 0.2058(12)
Cu5 Cu 0.9555(2) 0.1082(3) 0.0756(2)
Cu6 Cu 0.9260(2) 0.0735(2) 0.1787(2)
P2 P 1.00000 0.50000 0.00000
W7 W 1.15362(7) 0.38505(8) 0.12112(6)
W8 W 1.04780(7) 0.50498(8) 0.16870(6)
W9 W 1.10564(7) 0.38127(8) -0.04871(7)
W10 W 0.81375(7) 0.4442(1) -0.05033(6)
W11 W 0.91973(7) 0.32440(8) -0.09782(7)
W12 W 0.96754(7) 0.33107(9) 0.07155(7)
O23 O 1.200(2) 0.4779(19) 0.1109(13)
O24 O 1.1683(19) 0.4734(18) -0.0140(13)
O25 O 1.0688(15) 0.508(3) 0.2481(11)
O26 O 1.0483(18) 0.5744(18) 0.010(2)
O27 O 1.0036(17) 0.5448(19) 0.0573(15)
O28 O 1.1448(19) 0.3477(18) 0.0401(11)
O29 O 0.8330(15) 0.370(3) -0.1016(11)
O30 O 0.9499(14) 0.291(2) -0.0105(12)
O31 O 0.8695(17) 0.378(2) 0.0246(15)
O32 O 1.0917(15) 0.5992(16) 0.1625(13)
O33 O 1.2268(13) 0.3326(16) 0.1797(13)
O34 O 0.9521(14) 0.2489(15) 0.1043(12)
O35 O 0.8828(12) 0.2421(13) -0.1434(12)
O36 O 1.1563(13) 0.3266(13) -0.0726(12)
O37 O 0.9527(14) 0.5595(16) 0.1241(12)
O38 O 1.0230(12) 0.3162(14) -0.0739(14)
O39 O 1.1267(14) 0.4543(14) 0.1699(14)
O40 O 0.9921(12) 0.4092(13) 0.1390(13)
O41 O 1.0700(13) 0.3166(14) 0.0995(11)
O42 O 0.7249(11) 0.4208(12) -0.0763(9)
O43 O 1.082(2) 0.465(2) 0.0214(19)
O44 O 1.029(2) 0.457(2) 0.0631(17)
O45 O -0.2039(14) -0.860(2) -0.2819(18)
O46 O -0.161(3) -0.698(3) -0.295(2)
O47 O 0.1548(18) -0.448(2) -0.1308(15)
O48 O 0.379(5) -0.258(6) -0.269(4)
O49 O 0.333(3) -0.081(5) -0.340(4)
O50? O 0.472(4) -0.127(5) -0.260(5)
O6B O 0.433(2) 0.002(2) 0.0132(18)
O10B O 0.478(2) 0.044(2) -0.0648(18)
O16B O 0.433(2) -0.038(2) -0.0583(18)
O18B O 0.4933(18) 0.086(2) 0.0146(16)
W1B W 0.45448(8) 0.19054(8) -0.07534(8)
O1B O 0.4383(12) 0.2793(14) -0.1097(10)
W2B W 0.38955(8) 0.13348(8) 0.03310(7)
O2B O 0.3796(17) -0.2526(14) -0.1449(14)
W3B W 0.37315(7) 0.01822(8) -0.17434(6)
O3B O 0.3074(12) 0.0042(14) -0.1404(11)
W4B W 0.43443(8) -0.05762(8) 0.10832(7)
O4B O 0.3133(13) 0.0266(17) -0.2567(12)
W5B W 0.30640(6) -0.03873(8) -0.06545(6)
O5B O 0.3367(12) 0.1947(13) 0.0485(11)
W6B W 0.41695(7) -0.17264(7) -0.09828(6)
O7B O 0.3397(13) -0.1332(15) -0.0868(14)
O8B O 0.347(2) -0.0750(15) 0.0212(13)
O9B O 0.3836(14) 0.1268(16) -0.1424(12)
O11B O 0.4069(13) -0.0840(16) 0.1618(11)
O12B O 0.5337(13) 0.212(2) 0.0116(13)
O13B O 0.4863(13) 0.169(2) 0.0885(13)
O14B O 0.5307(15) 0.1588(13) -0.0889(19)
O15B O 0.3919(13) 0.186(2) -0.0383(14)
O17B O 0.2147(12) -0.0561(14) -0.0974(14)
O19B O 0.408(2) 0.0527(16) 0.0956(15)
O20B O 0.315(2) 0.0622(15) -0.0304(12)
O21B O 0.3868(15) -0.0920(13) -0.1649(14)
O22B O 0.4671(13) 0.0155(17) -0.1664(14)
C13A C 0.627(4) -0.239(4) 0.264(3)
H9A H 0.66130 -0.21010 0.25760
C14A C 0.536(2) -0.277(2) 0.2569(19)
C15A C 0.648(3) -0.307(4) 0.294(2)
H10A H 0.69550 -0.32850 0.31600
N2A N 0.586(2) -0.340(2) 0.2870(19)
N10A N 0.569(3) -0.215(3) 0.246(2)
H15A H 0.55130 -0.16870 0.22870
C1A C 0.308(4) -0.508(5) 0.288(3)
H1A H 0.25650 -0.51390 0.26950
C2A C 0.346(2) -0.446(3) 0.319(2)
H2A H 0.32770 -0.39840 0.32490
C3A C 0.610(4) -0.602(3) 0.352(2)
H3A H 0.66010 -0.59800 0.36480
C4A C 0.424(3) -0.529(3) 0.320(2)
C5A C 0.489(3) -0.573(2) 0.3298(17)
C6A C 0.6472(19) -0.499(2) 0.5172(17)
C7A C 0.599(2) -0.621(2) 0.507(2)
H4A H 0.56510 -0.66180 0.49860
C8A C 0.674(2) -0.631(2) 0.525(2)
H5A H 0.70100 -0.67770 0.53560
C9A C 0.7069(18) -0.303(2) 0.5264(16)
H6A H 0.74270 -0.26250 0.54270
C10A C 0.6366(17) -0.2968(19) 0.4760(15)
H7A H 0.61460 -0.25020 0.45290
C11A C 0.6539(17) -0.4186(19) 0.5093(15)
C12A C 0.565(4) -0.666(5) 0.343(4)
H8A H 0.58160 -0.71710 0.34330
N1A N 0.355(3) -0.567(5) 0.285(3)
H11A H 0.34470 -0.61340 0.26780
N3A N 0.551(2) -0.5403(18) 0.3336(17)
N4A N 0.4226(17) -0.463(2) 0.3413(15)
N5A N 0.6982(16) -0.5574(18) 0.5250(14)
H12A H 0.74100 -0.54740 0.52910
N6A N 0.5860(16) -0.5420(19) 0.5052(18)
N7A N 0.7157(13) -0.3754(17) 0.5483(12)
H13A H 0.75530 -0.39330 0.58270
N8A N 0.6003(13) -0.3706(15) 0.4624(14)
N9A N 0.499(4) -0.655(3) 0.335(2)
H14A H 0.46810 -0.68980 0.33380
Cu1A Cu 0.5685(3) -0.4351(3) 0.3184(3)
Cu2A Cu 0.5061(2) -0.4004(3) 0.3995(2)
N6B N 0.5860(16) -0.4580(19) 0.0052(18)
Cu3A Cu 0.50000 -0.50000 0.50000
C26A C 1.149(2) 0.280(2) 0.2876(19)
H24A H 1.18620 0.31350 0.29130
C29A C 1.158(2) 0.203(2) 0.3102(17)
H25A H 1.20340 0.17610 0.33230
C30A C 1.0390(19) 0.228(2) 0.2613(18)
N19A N 1.0747(17) 0.2971(19) 0.2586(15)
H30A H 1.05390 0.34190 0.24180
N20A N 1.0883(13) 0.1739(15) 0.2942(12)
C16A C 1.154(4) -0.161(3) 0.529(3)
H16A H 1.17360 -0.21250 0.53470
C17A C 0.826(3) 0.083(3) 0.293(2)
H17A H 0.77660 0.10020 0.26910
C18A C 1.082(4) -0.143(3) 0.505(3)
H18A H 1.04080 -0.17680 0.48900
C19A C 1.151(2) -0.031(2) 0.535(2)
C20A C 1.248(2) 0.150(3) 0.583(2)
H19A H 1.28950 0.18200 0.61020
C21A C 1.041(3) -0.158(2) 0.345(2)
H20A H 1.05370 -0.21150 0.35250
C22A C 1.083(2) -0.099(2) 0.3431(19)
H21A H 1.12910 -0.10530 0.34650
C23A C 1.1757(19) 0.051(2) 0.5399(19)
C24A C 0.884(2) 0.121(2) 0.3364(19)
H22A H 0.88110 0.17040 0.35330
C25A C 1.1852(19) 0.174(2) 0.5281(17)
H23A H 1.17510 0.22470 0.51050
C27A C 0.985(2) -0.0461(19) 0.3317(17)
C28A C 0.9286(18) 0.0154(18) 0.3263(15)
N11A N 1.192(3) -0.097(3) 0.541(2)
H26A H 1.23850 -0.09570 0.55180
N12A N 1.242(2) 0.073(2) 0.5924(18)
H27A H 1.27310 0.04420 0.62500
N13A N 1.085(2) -0.061(2) 0.5121(19)
N14A N 1.1398(13) 0.1114(15) 0.5031(13)
N15A N 0.8533(14) 0.008(2) 0.2889(16)
H28A H 0.82810 -0.03330 0.26770
N16A N 0.9753(19) -0.124(2) 0.3332(16)
H29A H 0.93600 -0.14760 0.32800
N17A N 0.9509(14) 0.0843(16) 0.3556(13)
N18A N 1.0464(15) -0.0270(18) 0.3353(13)
Cu5A Cu 1.0445(2) 0.1082(3) 0.4244(2)
Cu6A Cu 1.0740(2) 0.0735(2) 0.3213(2)
Cu4A Cu 1.00000 0.00000 0.50000
N13B N 1.085(2) 0.061(2) 0.0121(19)
O26B O 0.9517(18) 0.4256(18) -0.010(2)
O27B O 0.9964(17) 0.4552(19) -0.0573(15)
O43B O 0.918(2) 0.535(2) -0.0214(19)
O44B O 0.971(2) 0.543(2) -0.0631(17)
W7B W 0.84638(7) 0.61495(8) -0.12112(6)
W8B W 0.95220(7) 0.49502(8) -0.16870(6)
W9B W 0.89436(7) 0.61873(8) 0.04871(7)
W10B W 1.18625(7) 0.5558(1) 0.05033(6)
W11B W 1.08027(7) 0.67560(8) 0.09782(7)
W12B W 1.03246(7) 0.66893(9) -0.07155(7)
O23B O 0.800(2) 0.5221(19) -0.1109(13)
O24B O 0.8317(19) 0.5266(18) 0.0140(13)
O25B O 0.9312(15) 0.492(3) -0.2481(11)
O28B O 0.8552(19) 0.6523(18) -0.0401(11)
O29B O 1.1670(15) 0.630(3) 0.1016(11)
O30B O 1.0501(14) 0.709(2) 0.0105(12)
O31B O 1.1305(17) 0.622(2) -0.0246(15)
O32B O 0.9083(15) 0.4008(16) -0.1625(13)
O33B O 0.7732(13) 0.6674(16) -0.1797(13)
O34B O 1.0479(14) 0.7511(15) -0.1043(12)
O35B O 1.1172(12) 0.7579(13) 0.1434(12)
O36B O 0.8437(13) 0.6734(13) 0.0726(12)
O37B O 1.0473(14) 0.4405(16) -0.1241(12)
O38B O 0.9770(12) 0.6838(14) 0.0739(14)
O39B O 0.8733(14) 0.5457(14) -0.1699(14)
O40B O 1.0079(12) 0.5908(13) -0.1390(13)
O41B O 0.9300(13) 0.6834(14) -0.0995(11)
O42B O 1.2751(11) 0.5792(12) 0.0763(9)
#END
