
#######################################################################
#
#                 Cambridge Crystallographic Data Centre
#                                CCDC
#
#######################################################################
#
# If this CIF has been generated from an entry in the Cambridge
# Structural Database, then it will include bibliographic, chemical,
# crystal, experimental, refinement or atomic coordinate data resulting
# from the CCDC's data processing and validation procedures.
#
#######################################################################

data_CSD_CIF_ZEVQAV
_audit_creation_date 2018-03-23
_audit_creation_method CSD-ConQuest-V1
_database_code_CSD ZEVQAV
_database_code_depnum_ccdc_archive 'CCDC 1831920'
_chemical_formula_sum 'C30 H26 O28 S4 Tb2'
_chemical_formula_moiety
;
(C30 H20 O26 S4 Tb2 2-)n,2(H3 O1 1+)
;
_journal_coden_Cambridge 1078
_journal_year 2018
_journal_name_full 'CSD Communication(Private Communication) '
loop_
_publ_author_name
"Qing-Yan Liu"
_chemical_name_systematic
;
catena-[bis(oxonium) 
bis(\m-4,4'-carbonylbis(2-sulfobenzoato))-tetraaqua-di-terbium unknown 
solvate]
;
_cell_volume   2919.702
_exptl_crystal_colour 'colorless'
_exptl_crystal_density_diffrn 1.457
_exptl_crystal_description 'prism'
_diffrn_ambient_temperature 293
_refine_special_details
;
Disordered solvent molecules were not modelled and the disordered density was 
taken into account using the SQUEEZE/PLATON procedure.
;
#These two values have been output from a single CSD field.
_refine_ls_R_factor_gt 0.0255
_refine_ls_wR_factor_gt 0.0255
_symmetry_cell_setting monoclinic
_symmetry_space_group_name_H-M 'P 2/c'
_symmetry_Int_Tables_number 13
loop_
_symmetry_equiv_pos_site_id
_symmetry_equiv_pos_as_xyz
1 x,y,z
2 -x,y,1/2-z
3 -x,-y,-z
4 x,-y,-1/2+z
_cell_length_a 19.6142(6)
_cell_length_b 16.2865(5)
_cell_length_c 9.2476(3)
_cell_angle_alpha 90
_cell_angle_beta 98.754(3)
_cell_angle_gamma 90
_cell_formula_units_Z 2
loop_
_atom_type_symbol
_atom_type_radius_bond
C 0.68
H 0.23
O 0.68
S 1.02
Tb 1.94
loop_
_atom_site_label
_atom_site_type_symbol
_atom_site_fract_x
_atom_site_fract_y
_atom_site_fract_z
Tb1 Tb 0.50000 0.47080(2) 0.75000
Tb2 Tb 1.00000 1.01611(2) 0.75000
S1 S 0.65951(4) 0.59130(4) 0.78767(8)
S2 S 0.89124(4) 0.83285(5) 0.72617(8)
O1 O 0.52815(11) 0.56824(13) 0.9325(2)
O2 O 0.40498(11) 0.40804(12) 0.5892(2)
H1 H 0.40960 0.35620 0.58840
H2 H 0.40390 0.42560 0.50230
O3 O 0.54945(12) 0.64097(14) 1.1341(2)
O4 O 1.02921(12) 1.13762(14) 0.8948(2)
H3 H 1.06170 1.16350 0.86390
H4 H 1.04230 1.12460 0.98370
O5 O 0.60702(11) 0.53794(12) 0.7055(2)
O6 O 0.68313(11) 0.56121(14) 0.9338(2)
O7 O 0.71409(11) 0.60811(14) 0.7030(2)
O8 O 0.58669(12) 0.95777(14) 0.6307(3)
O9 O 0.93605(10) 0.97231(13) 0.5298(2)
O10 O 0.88968(10) 0.93659(14) 0.3077(2)
O11 O 0.93377(10) 0.89693(13) 0.8046(2)
O12 O 0.92482(12) 0.79175(15) 0.6178(3)
O13 O 0.86509(12) 0.77851(15) 0.8281(2)
C1 C 0.57649(14) 0.70016(17) 0.9161(3)
C2 C 0.61957(14) 0.68803(17) 0.8099(3)
C3 C 0.63736(13) 0.75382(17) 0.7288(3)
H5 H 0.66600 0.74540 0.65870
C4 C 0.61323(13) 0.83194(18) 0.7504(3)
C5 C 0.57193(15) 0.84446(18) 0.8590(3)
H6 H 0.55640 0.89700 0.87650
C6 C 0.55424(15) 0.77911(17) 0.9399(3)
H7 H 0.52680 0.78810 1.01200
C7 C 0.55031(14) 0.63129(18) 0.9996(3)
C8 C 0.62780(14) 0.90243(18) 0.6576(3)
C9 C 0.69461(14) 0.90562(17) 0.5988(3)
C10 C 0.75465(14) 0.87179(17) 0.6755(3)
H8 H 0.75260 0.84190 0.76040
C11 C 0.81746(14) 0.88224(17) 0.6264(3)
C12 C 0.82090(14) 0.92490(18) 0.4968(3)
C13 C 0.76034(16) 0.9552(2) 0.4181(3)
H9 H 0.76160 0.98110 0.32900
C14 C 0.69758(15) 0.94767(19) 0.4699(3)
H10 H 0.65790 0.97080 0.41810
C15 C 0.88703(14) 0.94469(19) 0.4412(3)
S1A S 0.34049(4) 0.59130(4) 0.71233(8)
S2A S 0.10876(4) 0.83285(5) 0.77383(8)
O1A O 0.47185(11) 0.56824(13) 0.5675(2)
O2A O 0.59502(11) 0.40804(12) 0.9108(2)
H1A H 0.59040 0.35620 0.91160
H2A H 0.59610 0.42560 0.99770
O3A O 0.45055(12) 0.64097(14) 0.3659(2)
O5A O 0.39298(11) 0.53794(12) 0.7945(2)
O6A O 0.31687(11) 0.56121(14) 0.5662(2)
O7A O 0.28591(11) 0.60811(14) 0.7970(2)
O8A O 0.41331(12) 0.95777(14) 0.8693(3)
O9A O 0.06395(10) 0.97231(13) 0.9702(2)
O10A O 0.11032(10) 0.93659(14) 1.1923(2)
O11A O 0.06623(10) 0.89693(13) 0.6954(2)
O12A O 0.07518(12) 0.79175(15) 0.8822(3)
O13A O 0.13491(12) 0.77851(15) 0.6719(2)
C1A C 0.42351(14) 0.70016(17) 0.5839(3)
C2A C 0.38043(14) 0.68803(17) 0.6901(3)
C3A C 0.36264(13) 0.75382(17) 0.7712(3)
H5A H 0.33400 0.74540 0.84130
C4A C 0.38677(13) 0.83194(18) 0.7496(3)
C5A C 0.42807(15) 0.84446(18) 0.6410(3)
H6A H 0.44360 0.89700 0.62350
C6A C 0.44576(15) 0.77911(17) 0.5601(3)
H7A H 0.47320 0.78810 0.48800
C7A C 0.44969(14) 0.63129(18) 0.5004(3)
C8A C 0.37220(14) 0.90243(18) 0.8424(3)
C9A C 0.30539(14) 0.90562(17) 0.9012(3)
C10A C 0.24535(14) 0.87179(17) 0.8245(3)
H8A H 0.24740 0.84190 0.73960
C11A C 0.18254(14) 0.88224(17) 0.8736(3)
C12A C 0.17910(14) 0.92490(18) 1.0032(3)
C13A C 0.23966(16) 0.9552(2) 1.0819(3)
H9A H 0.23840 0.98110 1.17100
C14A C 0.30242(15) 0.94767(19) 1.0301(3)
H10A H 0.34210 0.97080 1.08190
C15A C 0.11297(14) 0.94469(19) 1.0588(3)
O4A O 0.97079(12) 1.13762(14) 0.6052(2)
H3A H 0.93830 1.16350 0.63610
H4A H 0.95770 1.12460 0.51630
Tb1B Tb 0.50000 0.52920(2) 0.25000
Tb1B* Tb 0.50000 0.52920(2) 1.25000
Tb2* Tb 0.00000 1.01611(2) 0.75000
Tb2B Tb 0.00000 0.98389(2) 1.25000
Tb2B* Tb 1.00000 0.98389(2) 0.25000
O3B O 0.45055(12) 0.35903(14) 0.8659(2)
O3C O 0.54945(12) 0.35903(14) 0.6341(2)
O9A* O 1.06395(10) 0.97231(13) 0.9702(2)
O10B O 1.11032(10) 1.06341(14) 0.6923(2)
O10C O 0.88968(10) 1.06341(14) 0.8077(2)
O11A* O 1.06623(10) 0.89693(13) 0.6954(2)
#END
