
#######################################################################
#
#                 Cambridge Crystallographic Data Centre
#                                CCDC
#
#######################################################################
#
# If this CIF has been generated from an entry in the Cambridge
# Structural Database, then it will include bibliographic, chemical,
# crystal, experimental, refinement or atomic coordinate data resulting
# from the CCDC's data processing and validation procedures.
#
#######################################################################

data_CSD_CIF_ZEVYOR
_audit_creation_date 2018-03-23
_audit_creation_method CSD-ConQuest-V1
_database_code_CSD ZEVYOR
_database_code_depnum_ccdc_archive 'CCDC 1572921'
_chemical_formula_sum 'C38 H32 Fe3 N2 O16'
_chemical_formula_moiety
;
(C33 H15 Fe3 O14 1-)n,n(C2 H8 N1 1+),n(C3 H7 N1 O1),n(H2 O1)
;
_journal_coden_Cambridge 1486
_journal_volume 8
_journal_year 2018
_journal_page_first 1267
_journal_name_full 'Cat.Sci.Tech. '
loop_
_publ_author_name
"P.H.Pham"
"S.H.Doan"
"H.T.T.Tran"
"N.N.Nguyen"
"A.N.Q.Phan"
"Ha V.Le"
"A.Thomas"
"T.N.Tu"
"N.T.S.Phan"
_chemical_name_systematic
;
catena-(dimethylammonium 
(\m-benzene-1,3,5-tricarboxylato)-bis(\m-naphthalene-2,6-dicarboxylato)-tri-ir
on dimethylformamide solvate monohydrate)
;
_chemical_name_common
;
VNU-20
;
_cell_volume   4103.057
_exptl_crystal_colour 'red'
_exptl_crystal_description 'rhombic'
_diffrn_ambient_temperature 93
_diffrn_special_details
;
twin

;
_refine_special_details
;
The cation and solvent molecules are disordered.

;
#These two values have been output from a single CSD field.
_refine_ls_R_factor_gt 0.1027
_refine_ls_wR_factor_gt 0.1027
_symmetry_cell_setting monoclinic
_symmetry_space_group_name_H-M 'P 21/c'
_symmetry_Int_Tables_number 14
loop_
_symmetry_equiv_pos_site_id
_symmetry_equiv_pos_as_xyz
1 x,y,z
2 -x,1/2+y,1/2-z
3 -x,-y,-z
4 x,-1/2-y,-1/2+z
_cell_length_a 12.6797(3)
_cell_length_b 13.5123(4)
_cell_length_c 23.9480(7)
_cell_angle_alpha 90
_cell_angle_beta 90
_cell_angle_gamma 90
_cell_formula_units_Z 4
loop_
_atom_type_symbol
_atom_type_radius_bond
C 0.68
H 0.23
Fe 1.52
N 0.68
O 0.68
loop_
_atom_site_label
_atom_site_type_symbol
_atom_site_fract_x
_atom_site_fract_y
_atom_site_fract_z
Fe1 Fe 0.77182(15) 0.89268(12) 0.28741(9)
C1 C 1.1377(12) 0.8957(10) 0.5415(6)
H1 H 1.19340 0.89810 0.51500
O1 O 0.9662(10) 0.8299(8) 0.3557(5)
O2 O 1.1822(8) 0.9452(6) 0.7135(5)
C2 C 1.0178(15) 0.8726(11) 0.4646(7)
H2 H 1.07570 0.87300 0.43950
C3 C 0.9488(11) 0.8815(11) 0.5600(8)
O3 O 1.0348(12) 0.8605(10) 0.7279(5)
Fe2 Fe 0.23213(15) 0.58930(12) 0.29448(9)
C4 C 1.1563(13) 0.9063(10) 0.5983(6)
H3 H 1.22590 0.91860 0.61120
Fe3 Fe 0.99975(15) 0.73787(13) 0.29146(7)
C5 C 1.0705(12) 0.8988(10) 0.6383(6)
C6 C 1.0361(11) 0.8817(9) 0.5256(6)
C7 C 0.9145(11) 0.8632(10) 0.4441(6)
C8 C 0.8874(13) 0.8555(11) 0.3856(7)
C9 C 0.7679(8) 0.4910(9) 0.2515(6)
H4 H 0.84280 0.49160 0.25100
C10 C 0.7138(10) 0.4046(9) 0.2378(5)
C11 C 0.7709(9) 0.3121(8) 0.2230(5)
C12 C 0.6016(11) 0.4067(11) 0.2327(6)
H5 H 0.56480 0.35120 0.21810
C13 C 0.7703(9) 0.6695(8) 0.2782(6)
C14 C 0.8416(13) 0.8774(11) 0.5400(7)
H6 H 0.78290 0.88220 0.56450
C15 C 0.9411(12) 0.8782(11) 0.1409(6)
C16 C 1.0735(11) 0.8727(10) -0.0587(6)
C17 C 0.9524(11) 0.8776(9) 0.0359(6)
C18 C 1.0982(12) 0.9032(9) 0.6973(6)
C19 C 0.9692(13) 0.8908(10) 0.6194(7)
H7 H 0.91220 0.89130 0.64510
C20 C 1.0620(12) 0.8640(11) 0.0441(7)
C21 C 1.1227(14) 0.8626(10) -0.0114(7)
H8 H 1.19710 0.85410 -0.01120
C22 C 0.9627(14) 0.8800(11) -0.0604(9)
H9 H 0.92890 0.88180 -0.09580
C23 C 0.901(1) 0.8844(9) -0.0130(7)
H10 H 0.82660 0.89190 -0.01490
C24 C 1.1311(13) 0.8756(10) -0.1136(6)
C25 C 1.1098(14) 0.8541(12) 0.0928(7)
H11 H 1.18390 0.84430 0.09450
C26 C 0.8879(13) 0.8836(9) 0.0893(7)
H12 H 0.81340 0.89090 0.08790
C27 C 1.0533(14) 0.8579(12) 0.1392(7)
H13 H 1.08850 0.84660 0.17360
C28 C 0.8878(11) 0.8849(10) 0.1957(7)
O4 O 1.0876(7) 0.8720(6) -0.1601(4)
C29 C 0.8299(15) 0.8662(11) 0.4848(6)
H14 H 0.75990 0.85970 0.47100
O5 O 0.7980(11) 0.8740(7) 0.3700(5)
C30 C 0.7125(9) 0.5769(8) 0.2659(6)
C31 C 0.6019(9) 0.5770(9) 0.2637(6)
H15 H 0.56390 0.63580 0.27190
O6 O 0.8662(8) 0.3194(7) 0.2188(4)
C32 C 0.4303(8) 0.4930(9) 0.2506(7)
C33 C 0.5473(9) 0.490(1) 0.2493(6)
O7 O 0.3825(6) 0.4322(6) 0.2177(4)
O8 O 0.3855(6) 0.5515(6) 0.2813(4)
O9 O 0.7187(7) 0.2341(6) 0.2195(4)
O10 O 0.8634(7) 0.6599(6) 0.2980(4)
O11 O 0.7213(7) 0.7483(6) 0.2728(4)
O12 O 1.2289(8) 0.8921(7) -0.1128(4)
O13 O 0.9219(8) 0.8461(8) 0.2384(5)
O14 O 0.7981(8) 0.9259(7) 0.1957(4)
O15 O 1.384(3) 0.916(3) 0.0946(16)
N1 N 1.414(3) 1.081(3) 0.0854(18)
C34 C 1.514(4) 1.060(3) 0.0790(19)
H16 H 1.55660 1.10680 0.10090
H17 H 1.53290 1.06600 0.03940
H18 H 1.52750 0.99260 0.09180
C35 C 1.364(3) 1.171(2) 0.0926(13)
H19 H 1.41210 1.21710 0.11190
H20 H 1.30040 1.16220 0.11490
H21 H 1.34550 1.19880 0.05610
C36 C 1.347(4) 1.001(3) 0.0957(17)
H22 H 1.27470 1.01130 0.10340
O16 O 1.588(7) 1.552(7) 0.097(4)
N2 N 1.509(2) 1.746(3) 0.121(1)
C37 C 1.5934(15) 1.777(2) 0.1547(12)
H23 H 1.64140 1.81830 0.13260
H24 H 1.63140 1.71900 0.16870
H25 H 1.56620 1.81560 0.18630
C38 C 1.416(2) 1.703(2) 0.1535(14)
H26 H 1.42090 1.63030 0.15350
H27 H 1.34970 1.72290 0.13580
H28 H 1.41760 1.72710 0.19200
C39? C 1.511(5) 1.673(4) 0.025(2)
N3? N 1.439(6) 1.713(6) 0.015(4)
C40? C 1.518(8) 1.786(6) 0.018(4)
O17? O 1.483(8) 1.507(7) 0.087(4)
C41? C 1.476(5) 1.427(5) 0.077(3)
O18? O 1.519(7) 1.431(5) 0.108(3)
N4? N 1.561(6) 1.364(6) 0.057(3)
C42? C 1.649(3) 1.330(3) 0.0871(15)
C43? C 1.604(6) 1.416(5) 0.095(3)
O19? O 1.510(7) 1.246(6) 0.113(3)
Fe1A Fe 0.22818(15) 0.39268(12) 0.21259(9)
Fe1B Fe 1.22818(15) 1.10732(12) 0.71259(9)
O2B O 0.8178(8) 1.0548(6) 0.2865(5)
O2C O 0.1822(8) 0.5548(6) 0.2135(5)
O3C O 1.0348(12) 0.6395(10) 0.2279(5)
Fe2A Fe 0.76787(15) 0.08930(12) 0.20552(9)
Fe2A* Fe 0.76787(15) 1.08930(12) 0.20552(9)
Fe2C Fe 1.23213(15) 0.91070(12) -0.20552(9)
Fe2C* Fe 1.23213(15) 0.91070(12) 0.79448(9)
Fe3A Fe 1.00025(15) 0.23787(13) 0.20854(7)
Fe3C Fe 0.99975(15) 0.76213(13) -0.20854(7)
Fe3C* Fe 0.99975(15) 0.76213(13) 0.79146(7)
O4C O 0.0876(7) 0.6280(6) 0.3399(4)
O4C* O 1.0876(7) 0.6280(6) 0.3399(4)
O6A O 1.1338(8) 0.8194(7) 0.2812(4)
O7A O 0.6175(6) 0.9322(6) 0.2823(4)
O9A O 0.2813(7) 0.7341(6) 0.2805(4)
O12C O 0.2289(8) 0.6079(7) 0.3872(4)
O14A O 0.2019(8) 0.4259(7) 0.3043(4)
#END
