
#######################################################################
#
#                 Cambridge Crystallographic Data Centre
#                                CCDC
#
#######################################################################
#
# If this CIF has been generated from an entry in the Cambridge
# Structural Database, then it will include bibliographic, chemical,
# crystal, experimental, refinement or atomic coordinate data resulting
# from the CCDC's data processing and validation procedures.
#
#######################################################################

data_CSD_CIF_ZEWPID
_audit_creation_date 2018-03-23
_audit_creation_method CSD-ConQuest-V1
_database_code_CSD ZEWPID
_database_code_depnum_ccdc_archive 'CCDC 1584564'
_chemical_formula_sum 'C194 H258 N22 O67 U4'
_chemical_formula_moiety
;
(C132 H66 O32 U4 4-)n,4(C2 H8 N1 1+),18(C3 H7 N1 O1),17(H2 O1)
;
_journal_coden_Cambridge 9
_journal_volume 57
_journal_year 2018
_journal_page_first 4419
_journal_name_full 'Inorg.Chem. '
loop_
_publ_author_name
"Jing Ai"
"Fang-Yuan Chen"
"Chao-Ying Gao"
"Hong-Rui Tian"
"Qing-Jiang Pan"
"Zhong-Ming Sun"
_chemical_name_systematic
;
catena-[tetrakis(dimethylammonium) 
tris(\m-4,4',4'',4'''-pyrene-1,3,6,8-tetrayltetrabenzoato)-octaoxo-tetra-urani
um(vi) N,N-dimethylformamide solvate heptadecahydrate]
;
_cell_volume  11519.036
_exptl_crystal_colour 'yellow'
_exptl_crystal_density_diffrn 0.898
_exptl_crystal_description 'plate'
_diffrn_ambient_temperature 273.1
_refine_special_details
;
Disordered cation and solvent molecules were not modelled and the disordered 
density was taken into account using the SQUEEZE/PLATON procedure.
;
#These two values have been output from a single CSD field.
_refine_ls_R_factor_gt 0.0708
_refine_ls_wR_factor_gt 0.0708
_symmetry_cell_setting monoclinic
_symmetry_space_group_name_H-M 'C 2/m'
_symmetry_Int_Tables_number 12
loop_
_symmetry_equiv_pos_site_id
_symmetry_equiv_pos_as_xyz
1 x,y,z
2 -x,y,-z
3 1/2+x,1/2+y,z
4 1/2-x,1/2+y,-z
5 -x,-y,-z
6 x,-y,z
7 -1/2-x,-1/2-y,-z
8 -1/2+x,-1/2-y,z
_cell_length_a 30.196(6)
_cell_length_b 17.028(3)
_cell_length_c 22.538(4)
_cell_angle_alpha 90
_cell_angle_beta 96.278(4)
_cell_angle_gamma 90
_cell_formula_units_Z 2
loop_
_atom_type_symbol
_atom_type_radius_bond
C 0.68
H 0.23
O 0.68
U 1.96
loop_
_atom_site_label
_atom_site_type_symbol
_atom_site_fract_x
_atom_site_fract_y
_atom_site_fract_z
U1 U 0.77172(2) 0.50000 0.86968(3)
U2 U 0.68696(2) 0.50000 0.16709(3)
O1 O 0.2322(2) 0.3571(4) 0.1283(3)
O2 O 0.62996(19) 0.4186(4) 0.1091(3)
C1 C 0.3307(4) 0.00000 0.0533(6)
H1 H 0.29970 0.00000 0.04760
C2 C 0.4718(4) 0.00000 0.0772(6)
C3 C 0.3532(3) 0.0717(5) 0.0575(4)
C4 C 0.5700(3) 0.1441(5) 0.0935(4)
C5 C 0.5427(3) 0.0724(5) 0.0841(4)
C6 C 0.3329(3) 0.2081(5) 0.0223(4)
H2 H 0.35310 0.20520 -0.00600
C7 C 0.3085(3) 0.2778(5) 0.0288(4)
H3 H 0.31250 0.32120 0.00500
C8 C 0.6327(3) 0.2128(5) 0.1457(4)
H4 H 0.65850 0.21180 0.17220
C9 C 0.2933(3) 0.1495(5) 0.0968(4)
H5 H 0.28720 0.10540 0.11890
O3 O 0.2634(2) 0.4180(4) 0.0573(3)
C10 C 0.2784(3) 0.2808(5) 0.0714(4)
C11 C 0.5846(3) 0.2817(5) 0.0729(5)
H6 H 0.57730 0.32740 0.05140
C12 C 0.6200(3) 0.2819(5) 0.1157(4)
C13 C 0.6454(3) 0.3547(5) 0.1309(5)
C14 C 0.3265(3) 0.1448(5) 0.0581(4)
C15 C 0.4951(3) 0.0717(5) 0.0805(4)
C16 C 0.5649(4) 0.00000 0.0855(6)
H7 H 0.59590 0.00000 0.08740
C17 C 0.4002(3) 0.0716(5) 0.0644(4)
C18 C 0.4253(3) 0.1423(5) 0.0771(4)
H8 H 0.41010 0.18940 0.08000
C19 C 0.2702(3) 0.2153(5) 0.1031(4)
H9 H 0.24840 0.21650 0.12930
C20 C 0.6074(3) 0.1457(5) 0.1364(5)
H10 H 0.61510 0.10100 0.15890
C21 C 0.5589(3) 0.2138(5) 0.0602(5)
H11 H 0.53490 0.21440 0.03060
C22 C 0.4240(4) 0.00000 0.0668(6)
C23 C 0.2570(3) 0.3541(5) 0.0843(5)
C24 C 0.4708(3) 0.1427(5) 0.0850(4)
H12 H 0.48600 0.18960 0.09340
C25 C 0.9472(5) 0.50000 0.4493(8)
C26 C 0.9121(6) 0.50000 0.5556(8)
C27 C 0.7994(5) 0.50000 0.2995(8)
C28 C 0.9754(5) 0.50000 0.5016(9)
C29 C 0.9881(6) 0.50000 0.6105(8)
H13 H 0.97630 0.50000 0.64690
C30 C 0.9582(6) 0.50000 0.5557(8)
C31 C 0.8703(6) 0.50000 0.3937(8)
C32 C 0.9020(6) 0.50000 0.4480(8)
C33 C 0.8855(6) 0.50000 0.5030(8)
H14 H 0.85480 0.50000 0.50400
C34 C 0.9674(6) 0.50000 0.3901(8)
H15 H 0.94890 0.50000 0.35430
C35 C 0.8535(4) 0.4339(8) 0.3687(6)
H16 H 0.86650 0.38650 0.38130
C36 C 0.8167(4) 0.4325(7) 0.3235(6)
H17 H 0.80450 0.38460 0.31040
O4 O 0.8228(3) 0.50000 0.9135(4)
O5 O 0.68065(18) 0.3558(3) 0.1665(3)
O6 O 0.6536(3) 0.50000 0.2243(5)
O7 O 0.7198(3) 0.50000 0.8244(4)
O8 O 0.7474(2) 0.4350(4) 0.2297(3)
C37 C 0.8886(6) 0.50000 0.6100(8)
C38 C 0.7638(5) 0.50000 0.2513(8)
C39 C 0.8420(6) 0.50000 0.7118(8)
C40 C 0.8814(4) 0.4338(8) 0.6367(6)
O9 O 0.7200(3) 0.50000 0.1078(5)
C41 C 0.8572(4) 0.4341(8) 0.6919(6)
H18 H 0.85310 0.38740 0.71190
O10 O 0.8054(2) 0.4355(4) 0.7871(3)
C42 C 0.8171(6) 0.50000 0.7629(8)
O1E O 0.2322(2) -0.3571(4) 0.1283(3)
O2E O 0.62996(19) -0.4186(4) 0.1091(3)
C3E C 0.3532(3) -0.0717(5) 0.0575(4)
C4E C 0.5700(3) -0.1441(5) 0.0935(4)
C5E C 0.5427(3) -0.0724(5) 0.0841(4)
C6E C 0.3329(3) -0.2081(5) 0.0223(4)
H2E H 0.35310 -0.20520 -0.00600
C7E C 0.3085(3) -0.2778(5) 0.0288(4)
H3E H 0.31250 -0.32120 0.00500
C8E C 0.6327(3) -0.2128(5) 0.1457(4)
H4E H 0.65850 -0.21180 0.17220
C9E C 0.2933(3) -0.1495(5) 0.0968(4)
H5E H 0.28720 -0.10540 0.11890
O3E O 0.2634(2) -0.4180(4) 0.0573(3)
C10E C 0.2784(3) -0.2808(5) 0.0714(4)
C11E C 0.5846(3) -0.2817(5) 0.0729(5)
H6E H 0.57730 -0.32740 0.05140
C12E C 0.6200(3) -0.2819(5) 0.1157(4)
C13E C 0.6454(3) -0.3547(5) 0.1309(5)
C14E C 0.3265(3) -0.1448(5) 0.0581(4)
C15E C 0.4951(3) -0.0717(5) 0.0805(4)
C17E C 0.4002(3) -0.0716(5) 0.0644(4)
C18E C 0.4253(3) -0.1423(5) 0.0771(4)
H8E H 0.41010 -0.18940 0.08000
C19E C 0.2702(3) -0.2153(5) 0.1031(4)
H9E H 0.24840 -0.21650 0.12930
C20E C 0.6074(3) -0.1457(5) 0.1364(5)
H10E H 0.61510 -0.10100 0.15890
C21E C 0.5589(3) -0.2138(5) 0.0602(5)
H11E H 0.53490 -0.21440 0.03060
C23E C 0.2570(3) -0.3541(5) 0.0843(5)
C24E C 0.4708(3) -0.1427(5) 0.0850(4)
H12E H 0.48600 -0.18960 0.09340
O5E O 0.68065(18) -0.3558(3) 0.1665(3)
C25A C 1.0528(5) 0.50000 0.5507(8)
C26A C 1.0879(6) 0.50000 0.4444(8)
C27A C 1.2006(5) 0.50000 0.7005(8)
C28A C 1.0246(5) 0.50000 0.4984(9)
C29A C 1.0119(6) 0.50000 0.3895(8)
H13A H 1.02370 0.50000 0.35310
C30A C 1.0418(6) 0.50000 0.4443(8)
C31A C 1.1297(6) 0.50000 0.6063(8)
C32A C 1.0980(6) 0.50000 0.5520(8)
C33A C 1.1145(6) 0.50000 0.4970(8)
H14A H 1.14520 0.50000 0.49600
C34A C 1.0326(6) 0.50000 0.6099(8)
H15A H 1.05110 0.50000 0.64570
C35A C 1.1465(4) 0.4339(8) 0.6313(6)
H16A H 1.13350 0.38650 0.61870
C36A C 1.1833(4) 0.4325(7) 0.6765(6)
H17A H 1.19550 0.38460 0.68960
O8A O 1.2526(2) 0.4350(4) 0.7703(3)
C37A C 1.1114(6) 0.50000 0.3900(8)
C38A C 1.2362(5) 0.50000 0.7487(8)
C39A C 1.1580(6) 0.50000 0.2882(8)
C40A C 1.1186(4) 0.4338(8) 0.3633(6)
C41A C 1.1428(4) 0.4341(8) 0.3081(6)
H18A H 1.14690 0.38740 0.28810
O10A O 1.1946(2) 0.4355(4) 0.2129(3)
C42A C 1.1829(6) 0.50000 0.2371(8)
C35D C 1.1465(4) 0.5661(8) 0.6313(6)
H16D H 1.13350 0.61350 0.61870
C36D C 1.1833(4) 0.5675(7) 0.6765(6)
H17D H 1.19550 0.61540 0.68960
O8D O 1.2526(2) 0.5650(4) 0.7703(3)
C40D C 1.1186(4) 0.5662(8) 0.3633(6)
C41D C 1.1428(4) 0.5659(8) 0.3081(6)
H18D H 1.14690 0.61260 0.28810
O10D O 1.1946(2) 0.5645(4) 0.2129(3)
C35E C 0.8535(4) 0.5661(8) 0.3687(6)
H16E H 0.86650 0.61350 0.38130
C36E C 0.8167(4) 0.5675(7) 0.3235(6)
H17E H 0.80450 0.61540 0.31040
O8E O 0.7474(2) 0.5650(4) 0.2297(3)
C40E C 0.8814(4) 0.5662(8) 0.6367(6)
C41E C 0.8572(4) 0.5659(8) 0.6919(6)
H18E H 0.85310 0.61260 0.71190
O10E O 0.8054(2) 0.5645(4) 0.7871(3)
U1A U 0.22828(2) 0.50000 0.13032(3)
U2A U 0.31304(2) 0.50000 0.83291(3)
O1A O 0.7678(2) 0.3571(4) 0.8717(3)
O2A O 0.37004(19) 0.4186(4) 0.8909(3)
C1A C 0.6693(4) 0.00000 0.9467(6)
H1A H 0.70030 0.00000 0.95240
C2A C 0.5282(4) 0.00000 0.9228(6)
C3A C 0.6468(3) 0.0717(5) 0.9425(4)
C4A C 0.4300(3) 0.1441(5) 0.9065(4)
C5A C 0.4573(3) 0.0724(5) 0.9159(4)
C6A C 0.6671(3) 0.2081(5) 0.9777(4)
H2A H 0.64690 0.20520 1.00600
C7A C 0.6915(3) 0.2778(5) 0.9712(4)
H3A H 0.68750 0.32120 0.99500
C8A C 0.3673(3) 0.2128(5) 0.8543(4)
H4A H 0.34150 0.21180 0.82780
C9A C 0.7067(3) 0.1495(5) 0.9032(4)
H5A H 0.71280 0.10540 0.88110
O3A O 0.7366(2) 0.4180(4) 0.9427(3)
C10A C 0.7216(3) 0.2808(5) 0.9286(4)
C11A C 0.4154(3) 0.2817(5) 0.9271(5)
H6A H 0.42270 0.32740 0.94860
C12A C 0.3800(3) 0.2819(5) 0.8843(4)
C13A C 0.3546(3) 0.3547(5) 0.8691(5)
C14A C 0.6735(3) 0.1448(5) 0.9419(4)
C15A C 0.5049(3) 0.0717(5) 0.9195(4)
C16A C 0.4351(4) 0.00000 0.9145(6)
H7A H 0.40410 0.00000 0.91260
C17A C 0.5998(3) 0.0716(5) 0.9356(4)
C18A C 0.5747(3) 0.1423(5) 0.9229(4)
H8A H 0.58990 0.18940 0.92000
C19A C 0.7298(3) 0.2153(5) 0.8969(4)
H9A H 0.75160 0.21650 0.87070
C20A C 0.3926(3) 0.1457(5) 0.8636(5)
H10A H 0.38490 0.10100 0.84110
C21A C 0.4411(3) 0.2138(5) 0.9398(5)
H11A H 0.46510 0.21440 0.96940
C22A C 0.5760(4) 0.00000 0.9332(6)
C23A C 0.7430(3) 0.3541(5) 0.9157(5)
C24A C 0.5292(3) 0.1427(5) 0.9150(4)
H12A H 0.51400 0.18960 0.90660
O4A O 0.1772(3) 0.50000 0.0865(4)
O5A O 0.31935(18) 0.3558(3) 0.8335(3)
O6A O 0.3464(3) 0.50000 0.7757(5)
O7A O 0.2802(3) 0.50000 0.1756(4)
O9A O 0.2800(3) 0.50000 0.8922(5)
O1D O 0.7678(2) -0.3571(4) 0.8717(3)
O2D O 0.37004(19) -0.4186(4) 0.8909(3)
C3D C 0.6468(3) -0.0717(5) 0.9425(4)
C4D C 0.4300(3) -0.1441(5) 0.9065(4)
C5D C 0.4573(3) -0.0724(5) 0.9159(4)
C6D C 0.6671(3) -0.2081(5) 0.9777(4)
H2D H 0.64690 -0.20520 1.00600
C7D C 0.6915(3) -0.2778(5) 0.9712(4)
H3D H 0.68750 -0.32120 0.99500
C8D C 0.3673(3) -0.2128(5) 0.8543(4)
H4D H 0.34150 -0.21180 0.82780
C9D C 0.7067(3) -0.1495(5) 0.9032(4)
H5D H 0.71280 -0.10540 0.88110
O3D O 0.7366(2) -0.4180(4) 0.9427(3)
C10D C 0.7216(3) -0.2808(5) 0.9286(4)
C11D C 0.4154(3) -0.2817(5) 0.9271(5)
H6D H 0.42270 -0.32740 0.94860
C12D C 0.3800(3) -0.2819(5) 0.8843(4)
C13D C 0.3546(3) -0.3547(5) 0.8691(5)
C14D C 0.6735(3) -0.1448(5) 0.9419(4)
C15D C 0.5049(3) -0.0717(5) 0.9195(4)
C17D C 0.5998(3) -0.0716(5) 0.9356(4)
C18D C 0.5747(3) -0.1423(5) 0.9229(4)
H8D H 0.58990 -0.18940 0.92000
C19D C 0.7298(3) -0.2153(5) 0.8969(4)
H9D H 0.75160 -0.21650 0.87070
C20D C 0.3926(3) -0.1457(5) 0.8636(5)
H10D H 0.38490 -0.10100 0.84110
C21D C 0.4411(3) -0.2138(5) 0.9398(5)
H11D H 0.46510 -0.21440 0.96940
C23D C 0.7430(3) -0.3541(5) 0.9157(5)
C24D C 0.5292(3) -0.1427(5) 0.9150(4)
H12D H 0.51400 -0.18960 0.90660
O5D O 0.31935(18) -0.3558(3) 0.8335(3)
U1* U 0.77172(2) -0.50000 0.86968(3)
U1A* U 0.22828(2) -0.50000 0.13032(3)
U1A** U 1.22828(2) 0.50000 0.13032(3)
U2* U 0.68696(2) -0.50000 0.16709(3)
U2A* U 0.31304(2) -0.50000 0.83291(3)
U2A** U 1.31304(2) 0.50000 0.83291(3)
O1D* O 0.7678(2) 0.6429(4) 0.8717(3)
O1E* O 0.2322(2) 0.6429(4) 0.1283(3)
O2D* O 0.37004(19) 0.5814(4) 0.8909(3)
O2E* O 0.62996(19) 0.5814(4) 0.1091(3)
O3D* O 0.7366(2) 0.5820(4) 0.9427(3)
O3E* O 0.2634(2) 0.5820(4) 0.0573(3)
O5D* O 0.31935(18) 0.6442(3) 0.8335(3)
O5E* O 0.68065(18) 0.6442(3) 0.1665(3)
O8A* O 0.2526(2) 0.4350(4) 0.7703(3)
O8D* O 0.2526(2) 0.5650(4) 0.7703(3)
O10A* O 0.1946(2) 0.4355(4) 0.2129(3)
O10D* O 0.1946(2) 0.5645(4) 0.2129(3)
#END
