
#######################################################################
#
#                 Cambridge Crystallographic Data Centre
#                                CCDC
#
#######################################################################
#
# If this CIF has been generated from an entry in the Cambridge
# Structural Database, then it will include bibliographic, chemical,
# crystal, experimental, refinement or atomic coordinate data resulting
# from the CCDC's data processing and validation procedures.
#
#######################################################################

data_CSD_CIF_ZEYCOX
_audit_creation_date 2013-05-20
_audit_creation_method CSD-ConQuest-V1
_database_code_CSD ZEYCOX
_database_code_depnum_ccdc_archive 'CCDC 896830'
_chemical_formula_sum 'C50 H84 N10 O18 Zn2'
_chemical_formula_moiety
;
(C28 H26 N2 O12 Zn2 2-)n,6n(C3 H7 N1 O1),2n(C2 H8 N1 1+)
;
_journal_coden_Cambridge 222
_journal_volume 42
_journal_year 2013
_journal_page_first 4786
_journal_name_full 'Dalton Trans. '
loop_
_publ_author_name
"K.Akhbari"
"A.Morsali"
_chemical_name_systematic
;
catena-(bis(Dimethylammonium) tris(\m~2~-terepthalato)-dimethylamine-zinc 
N,N-dimethylformamide solvate)
;
_cell_volume   3169.488
_exptl_crystal_colour 'colorless'
_exptl_crystal_density_diffrn 1.304
_exptl_crystal_description 'parallelepiped'
_diffrn_ambient_temperature 193
#These two values have been output from a single CSD field.
_refine_ls_R_factor_gt 0.0619
_refine_ls_wR_factor_gt 0.0619
_symmetry_cell_setting monoclinic
_symmetry_space_group_name_H-M 'P 21/c'
_symmetry_Int_Tables_number 14
loop_
_symmetry_equiv_pos_site_id
_symmetry_equiv_pos_as_xyz
1 x,y,z
2 -x,1/2+y,1/2-z
3 -x,-y,-z
4 x,-1/2-y,-1/2+z
_cell_length_a 17.546(3)
_cell_length_b 11.158(2)
_cell_length_c 18.392(3)
_cell_angle_alpha 90
_cell_angle_beta 118.33(2)
_cell_angle_gamma 90
_cell_formula_units_Z 2
loop_
_atom_type_symbol
_atom_type_radius_bond
C 0.68
H 0.23
N 0.68
O 0.68
Zn 1.22
loop_
_atom_site_label
_atom_site_type_symbol
_atom_site_fract_x
_atom_site_fract_y
_atom_site_fract_z
Zn1 Zn 0.83923(3) 0.16180(4) 0.66285(3)
O1 O 0.87436(18) 0.0807(3) 0.59224(18)
O2 O 1.00115(19) 0.1740(2) 0.67048(19)
O3 O 0.72853(17) 0.0742(3) 0.60200(19)
O4 O 0.67077(19) 0.2162(3) 0.6401(2)
O5 O 0.90095(17) 0.1511(2) 0.78942(17)
O6 O 0.9092(3) -0.0418(3) 0.7691(2)
N1 N 0.8222(3) 0.3422(3) 0.6417(3)
H1 H 0.78040 0.31690 0.64800
C1 C 0.7944(4) 0.3802(5) 0.5554(3)
H2 H 0.78380 0.46680 0.55040
H3 H 0.74110 0.33800 0.51790
H4 H 0.84000 0.36110 0.54080
C2 C 0.8812(4) 0.4169(5) 0.7079(4)
H5 H 0.93850 0.41320 0.71100
H6 H 0.88530 0.38880 0.76010
H7 H 0.86020 0.49980 0.69790
C3 C 0.9513(3) 0.1065(4) 0.6115(3)
C4 C 0.9760(2) 0.0501(3) 0.5536(2)
C5 C 0.9191(2) -0.0239(3) 0.4852(2)
H8 H 0.86230 -0.03890 0.47700
C6 C 1.0569(2) 0.0729(3) 0.5679(2)
H9 H 1.09540 0.12100 0.61310
C7 C 0.6651(3) 0.1224(4) 0.6018(3)
C8 C 0.5797(2) 0.0578(4) 0.5485(2)
C9 C 0.5678(3) -0.0317(4) 0.4920(3)
H10 H 0.61630 -0.05510 0.48550
C10 C 0.5109(3) 0.0900(4) 0.5562(3)
H11 H 0.51520 0.15140 0.59370
C11 C 0.9224(3) 0.0437(4) 0.8171(3)
C12 C 0.9639(2) 0.0229(3) 0.9122(2)
C13 C 0.9776(3) 0.1161(4) 0.9682(3)
H12 H 0.96290 0.19580 0.94820
C14 C 0.9864(3) -0.0935(4) 0.9447(3)
H13 H 0.97780 -0.15870 0.90840
N2 N 0.6804(3) -0.1798(4) 0.8268(3)
C15 C 0.6113(4) -0.1310(6) 0.7440(4)
H14 H 0.55630 -0.17210 0.72830
H15 H 0.62910 -0.14470 0.70170
H16 H 0.60400 -0.04480 0.74900
C16 C 0.7668(4) -0.1304(6) 0.8640(4)
H17 H 0.80540 -0.18010 0.91110
H18 H 0.76590 -0.04860 0.88290
H19 H 0.78770 -0.12910 0.82310
C17 C 0.6662(3) -0.2652(5) 0.8670(3)
H20 H 0.60940 -0.29780 0.84190
O7 O 0.7206(2) -0.3102(4) 0.9368(2)
N3 N 0.6858(3) 0.2976(4) 0.8375(2)
C18 C 0.7696(3) 0.3082(6) 0.8487(4)
H21 H 0.78090 0.24340 0.81910
H22 H 0.81090 0.30300 0.90770
H23 H 0.77610 0.38560 0.82710
C19 C 0.6631(4) 0.3905(5) 0.8769(4)
H24 H 0.60910 0.36920 0.87750
H25 H 0.65500 0.46570 0.84660
H26 H 0.70950 0.40030 0.93380
C20 C 0.6306(3) 0.2117(5) 0.7903(3)
H27 H 0.65300 0.15450 0.76710
O8 O 0.5574(2) 0.1994(4) 0.7744(2)
N4 N 0.4694(4) 0.0332(4) 0.8911(3)
C21 C 0.5322(5) -0.0389(6) 0.8887(5)
H28 H 0.50520 -0.11170 0.85710
H29 H 0.57490 -0.06080 0.94520
H30 H 0.56100 0.00460 0.86230
C22 C 0.4962(6) 0.1492(5) 0.9326(5)
H31 H 0.51200 0.20280 0.89970
H32 H 0.54630 0.13800 0.98730
H33 H 0.44840 0.18450 0.93860
C23 C 0.3901(5) -0.0069(7) 0.8581(5)
H34 H 0.37840 -0.08090 0.82930
O9 O 0.3316(4) 0.0413(6) 0.8610(4)
N5 N 0.8269(3) -0.1679(3) 0.6192(2)
H35 H 0.799(3) -0.129(4) 0.571(3)
H36 H 0.857(3) -0.106(4) 0.662(3)
C24 C 0.8986(3) -0.2383(4) 0.6267(3)
H37 H 0.93080 -0.26940 0.68310
H38 H 0.93700 -0.18830 0.61440
H39 H 0.87720 -0.30540 0.58770
C25 C 0.7722(3) -0.2377(5) 0.6392(4)
H40 H 0.74830 -0.30430 0.60000
H41 H 0.72490 -0.18770 0.63610
H42 H 0.80560 -0.26940 0.69530
O1B O 1.12564(18) -0.0807(3) 0.40776(18)
O2B O 0.99885(19) -0.1740(2) 0.32952(19)
C3B C 1.0487(3) -0.1065(4) 0.3885(3)
C4B C 1.0240(2) -0.0501(3) 0.4464(2)
C5B C 1.0809(2) 0.0239(3) 0.5148(2)
H8B H 1.13770 0.03890 0.52300
C6B C 0.9431(2) -0.0729(3) 0.4321(2)
H9B H 0.90460 -0.12100 0.38690
O3B O 0.27147(17) -0.0742(3) 0.39800(19)
O4B O 0.32923(19) -0.2162(3) 0.3599(2)
C7B C 0.3349(3) -0.1224(4) 0.3982(3)
C8B C 0.4203(2) -0.0578(4) 0.4515(2)
C9B C 0.4322(3) 0.0317(4) 0.5080(3)
H10B H 0.38370 0.05510 0.51450
C10B C 0.4891(3) -0.0900(4) 0.4438(3)
H11B H 0.48480 -0.15140 0.40630
O5B O 1.09905(17) -0.1511(2) 1.21058(17)
O6B O 1.0908(3) 0.0418(3) 1.2309(2)
C11B C 1.0776(3) -0.0437(4) 1.1829(3)
C12B C 1.0361(2) -0.0229(3) 1.0878(2)
C13B C 1.0224(3) -0.1161(4) 1.0318(3)
H12B H 1.03710 -0.19580 1.05180
C14B C 1.0136(3) 0.0935(4) 1.0553(3)
H13B H 1.02220 0.15870 1.09160
Zn1B Zn 0.16077(3) -0.16180(4) 0.33715(3)
N1B N 0.1778(3) -0.3422(3) 0.3583(3)
H1B H 0.21960 -0.31690 0.35200
C1B C 0.2056(4) -0.3802(5) 0.4446(3)
H2B H 0.21620 -0.46680 0.44960
H3B H 0.25890 -0.33800 0.48210
H4B H 0.16000 -0.36110 0.45920
C2B C 0.1188(4) -0.4169(5) 0.2921(4)
H5B H 0.06150 -0.41320 0.28900
H6B H 0.11470 -0.38880 0.23990
H7B H 0.13980 -0.49980 0.30210
Zn1B* Zn 1.16077(3) -0.16180(4) 0.33715(3)
Zn1B** Zn 1.16077(3) -0.16180(4) 1.33715(3)
O1B* O 0.12564(18) -0.0807(3) 0.40776(18)
O5B* O 0.09905(17) -0.1511(2) 0.21058(17)
#END
