
#######################################################################
#
#                 Cambridge Crystallographic Data Centre
#                                CCDC
#
#######################################################################
#
# If this CIF has been generated from an entry in the Cambridge
# Structural Database, then it will include bibliographic, chemical,
# crystal, experimental, refinement or atomic coordinate data resulting
# from the CCDC's data processing and validation procedures.
#
#######################################################################

data_CSD_CIF_ZEYRON
_audit_creation_date 2018-03-26
_audit_creation_method CSD-ConQuest-V1
_database_code_CSD ZEYRON
_database_code_depnum_ccdc_archive 'CCDC 1581536'
_chemical_formula_sum 'C112 H120 Mn3 N6 O38'
_chemical_formula_moiety
;
(C96 H76 Mn3 O34 4-)n,4(C3 H7 N1 O1),2(C2 H8 N1 1+)
;
_journal_coden_Cambridge 1147
_journal_volume 18
_journal_year 2018
_journal_page_first 2129
_journal_name_full 'Cryst.Growth Des. '
loop_
_publ_author_name
"S.Seth"
"G.Savitha"
"J.N.Moorthy"
_chemical_name_systematic
;
catena-[ bis(dimethylammonium) 
bis(\m-3,3',5,5'-tetrakis(4-(a-carboxylato)methoxyphenyl)-2,2',6,6'-tetrametho
xy-1,1'-biphenyl)-tri-manganese(ii) N,N-dimethylformamide unknown solvate]
;
_cell_volume   3726.586
_exptl_crystal_colour 'colorless'
_exptl_crystal_description 'prism'
_diffrn_ambient_temperature 100
_refine_special_details
;
Disordered solvent molecules were not modelled and the disordered density was 
taken into account using the SQUEEZE/PLATON procedure.
;
#These two values have been output from a single CSD field.
_refine_ls_R_factor_gt 0.1062
_refine_ls_wR_factor_gt 0.1062
_symmetry_cell_setting triclinic
_symmetry_space_group_name_H-M 'P -1'
_symmetry_Int_Tables_number 2
loop_
_symmetry_equiv_pos_site_id
_symmetry_equiv_pos_as_xyz
1 x,y,z
2 -x,-y,-z
_cell_length_a 14.1569(11)
_cell_length_b 16.4929(12)
_cell_length_c 16.5300(12)
_cell_angle_alpha 84.763(2)
_cell_angle_beta 75.835(2)
_cell_angle_gamma 88.628(2)
_cell_formula_units_Z 1
loop_
_atom_type_symbol
_atom_type_radius_bond
C 0.68
H 0.23
Mn 1.61
N 0.68
O 0.68
loop_
_atom_site_label
_atom_site_type_symbol
_atom_site_fract_x
_atom_site_fract_y
_atom_site_fract_z
Mn1 Mn -0.04667(5) 0.84116(4) 0.18161(4)
Mn2 Mn 0.00000 1.00000 0.00000
O1 O 0.1269(2) 0.9451(2) 0.0366(2)
O2 O 0.0937(2) 0.8852(2) 0.1683(2)
O3 O 0.2826(2) 0.8894(2) 0.1741(2)
O4 O 0.1974(2) 0.1211(2) -0.1918(2)
O5 O 0.0937(2) 0.0240(2) -0.1283(2)
O6 O 0.3545(2) 0.0310(2) -0.1725(2)
O7 O 1.0495(3) 0.1095(2) 0.0338(2)
O8 O 1.0265(2) 0.2093(2) -0.0613(2)
O9 O 0.9695(2) 0.3129(2) 0.0656(2)
O10 O 0.0477(3) 0.2769(2) 0.7638(2)
O11 O 0.0074(3) 0.3904(2) 0.6948(2)
O12 O -0.0867(2) 0.3079(2) 0.6046(2)
O13 O 0.2631(3) 0.2938(2) 0.2840(2)
O14 O 0.3872(2) 0.5221(2) 0.0964(2)
O15 O 0.2745(2) 0.3160(2) 0.0786(2)
O16 O 0.5220(2) 0.3976(2) 0.2056(2)
C1 C 0.1491(4) 0.9182(3) 0.1024(3)
C2 C 0.2554(4) 0.9290(3) 0.1028(3)
H1 H 0.29602 0.90830 0.05273
H2 H 0.26867 0.98678 0.10008
C3 C 0.2813(3) 0.8058(3) 0.1819(3)
C4 C 0.2579(3) 0.7580(3) 0.1240(3)
H3 H 0.24273 0.78271 0.07584
C5 C 0.2575(3) 0.6739(3) 0.1382(3)
H4 H 0.24274 0.64244 0.09906
C6 C 0.2788(3) 0.6359(3) 0.2101(3)
C7 C 0.3016(3) 0.6847(3) 0.2673(3)
H5 H 0.31502 0.66031 0.31626
C8 C 0.3048(3) 0.7691(3) 0.2528(3)
H6 H 0.32256 0.80056 0.29053
C9 C 0.2738(3) 0.5458(3) 0.2282(3)
C10 C 0.3320(3) 0.4939(3) 0.1741(3)
C11 C 0.3278(3) 0.4100(3) 0.1946(3)
C12 C 0.2626(4) 0.3769(3) 0.2660(3)
C13 C 0.2013(4) 0.4281(3) 0.3199(3)
C14 C 0.2091(3) 0.5112(3) 0.3006(3)
H7 H 0.17020 0.54533 0.33682
C15 C 0.4749(4) 0.5642(3) 0.0954(3)
H8 H 0.51001 0.57802 0.03847
H9 H 0.51467 0.52979 0.12364
H10 H 0.45885 0.61302 0.12337
C16 C 0.1821(5) 0.2523(4) 0.2694(4)
H11 H 0.18842 0.19488 0.28272
H12 H 0.18080 0.26258 0.21159
H13 H 0.12278 0.27168 0.30412
C17 C 0.1271(4) 0.3949(3) 0.3956(3)
C18 C 0.1480(4) 0.3305(3) 0.4495(3)
H14 H 0.20987 0.30733 0.43764
C19 C 0.0793(4) 0.3000(3) 0.5199(3)
H15 H 0.09552 0.25778 0.55535
C20 C -0.0135(4) 0.3328(3) 0.5373(3)
C21 C -0.0366(4) 0.3971(3) 0.4839(3)
H16 H -0.09911 0.41908 0.49505
C22 C 0.0339(4) 0.4282(3) 0.4142(3)
H17 H 0.01850 0.47163 0.37979
C23 C -0.0564(4) 0.2641(3) 0.6729(3)
H18 H -0.01878 0.21684 0.65286
H19 H -0.11362 0.24476 0.71523
C24 C 0.0043(4) 0.3153(3) 0.7125(3)
C25 C 0.3981(3) 0.3555(3) 0.1412(3)
C26 C 0.3692(3) 0.3082(3) 0.0864(3)
C27 C 0.4340(3) 0.2550(3) 0.0407(3)
C28 C 0.5309(3) 0.2540(3) 0.0483(3)
H20 H 0.57507 0.21933 0.01690
C29 C 0.5634(3) 0.3018(3) 0.0999(3)
C30 C 0.4945(3) 0.3515(3) 0.1492(3)
C31 C 0.5158(5) 0.3536(4) 0.2841(3)
H21 H 0.53909 0.38678 0.31991
H22 H 0.55479 0.30519 0.27654
H23 H 0.44916 0.33890 0.30932
C32 C 0.2669(4) 0.3711(3) 0.0089(3)
H24 H 0.20059 0.37323 0.00437
H25 H 0.30804 0.35285 -0.04140
H26 H 0.28707 0.42436 0.01687
C33 C 0.4064(3) 0.1998(3) -0.0156(3)
C34 C 0.3208(3) 0.1561(3) 0.0058(3)
H27 H 0.27564 0.16511 0.05539
C35 C 0.2994(3) 0.0990(3) -0.0441(3)
H28 H 0.24143 0.06988 -0.02788
C36 C 0.3672(3) 0.0864(3) -0.1193(3)
C37 C 0.4522(3) 0.1301(3) -0.1434(3)
H29 H 0.49636 0.12210 -0.19384
C38 C 0.4724(3) 0.1864(3) -0.0923(3)
H30 H 0.53022 0.21574 -0.10897
C39 C 0.2622(3) -0.0084(3) -0.1532(3)
H31 H 0.25016 -0.03587 -0.09721
H32 H 0.26374 -0.04936 -0.19204
C40 C 0.1795(4) 0.0504(3) -0.1579(3)
C41 C 0.6692(3) 0.3032(3) 0.0984(3)
C42 C 0.7209(4) 0.2313(3) 0.1013(3)
H33 H 0.68816 0.18190 0.10947
C43 C 0.8210(3) 0.2318(3) 0.0921(3)
H34 H 0.85459 0.18287 0.09512
C44 C 0.8703(3) 0.3040(3) 0.0786(3)
C45 C 0.8186(4) 0.3774(3) 0.0767(3)
H35 H 0.85156 0.42678 0.06826
C46 C 0.7193(4) 0.3766(3) 0.0873(3)
H36 H 0.68521 0.42555 0.08713
C47 C 1.0230(4) 0.2404(3) 0.0772(3)
H37 H 0.99151 0.21198 0.13063
H38 H 1.08769 0.25554 0.08039
C48 C 1.0336(3) 0.1814(3) 0.0098(3)
O17 O -0.0775(3) 0.8983(2) 0.3077(2)
N1 N 0.0376(4) 0.4731(3) 0.8158(3)
H39 H 0.03441 0.44500 0.77309
H40 H 0.09963 0.48659 0.80961
C49 C 0.0055(5) 0.4213(4) 0.8935(4)
H41 H 0.04581 0.37356 0.89173
H42 H -0.06100 0.40562 0.90019
H43 H 0.01057 0.45065 0.93984
C50 C -0.0205(5) 0.5482(4) 0.8124(4)
H44 H 0.00143 0.57778 0.75843
H45 H -0.01269 0.58131 0.85511
H46 H -0.08792 0.53433 0.82128
O18 O 0.7753(3) 0.5508(3) 0.1604(3)
N2 N 0.6527(4) 0.6255(4) 0.2352(4)
C51 C 0.6918(5) 0.5565(4) 0.2052(4)
H47 H 0.65385 0.50970 0.21881
C52 C 0.7120(5) 0.7006(4) 0.2184(4)
H48 H 0.68347 0.74084 0.18582
H49 H 0.77698 0.68862 0.18789
H50 H 0.71405 0.72102 0.27046
C53 C 0.5545(5) 0.6282(4) 0.2854(5)
H51 H 0.52059 0.67312 0.26406
H52 H 0.55528 0.63488 0.34228
H53 H 0.52183 0.57830 0.28333
O19 O 0.8034(7) 0.0358(6) 0.3272(6)
N3 N 0.834(1) 0.1801(9) 0.3186(7)
C54 C 0.744(1) 0.1997(9) 0.3285(9)
H54 H 0.71124 0.19103 0.38670
H55 H 0.71432 0.16661 0.29663
H56 H 0.73889 0.25601 0.30946
C55 C 0.9007(10) 0.2428(9) 0.3260(8)
H57 H 0.96612 0.22787 0.29926
H58 H 0.89602 0.24850 0.38411
H59 H 0.88422 0.29359 0.29946
C56 C 0.8687(12) 0.0979(11) 0.3112(9)
H60 H 0.93520 0.08730 0.29567
N4 N -0.2943(9) 0.4792(8) 0.4401(7)
H61 H -0.33124 0.47234 0.40470
H62 H -0.26022 0.43381 0.44547
C57 C -0.2316(11) 0.5461(9) 0.4106(9)
H63 H -0.19898 0.54175 0.35299
H64 H -0.18417 0.54650 0.44337
H65 H -0.26874 0.59561 0.41548
C58 C -0.3407(11) 0.4937(9) 0.5025(9)
H66 H -0.38510 0.44971 0.52551
H67 H -0.29976 0.50105 0.53980
H68 H -0.37674 0.54281 0.49560
Mn1A Mn 0.04667(5) 0.15884(4) -0.18161(4)
O1A O -0.1269(2) 0.0549(2) -0.0366(2)
O2A O -0.0937(2) 0.1148(2) -0.1683(2)
O3A O -0.2826(2) 0.1106(2) -0.1741(2)
O4A O -0.1974(2) 0.8789(2) 0.1918(2)
O5A O -0.0937(2) 0.9760(2) 0.1283(2)
O6A O -0.3545(2) 0.9690(2) 0.1725(2)
O7A O -1.0495(3) 0.8905(2) -0.0338(2)
O8A O -1.0265(2) 0.7907(2) 0.0613(2)
O9A O -0.9695(2) 0.6871(2) -0.0656(2)
O10A O -0.0477(3) 0.7231(2) -0.7638(2)
O11A O -0.0074(3) 0.6096(2) -0.6948(2)
O12A O 0.0867(2) 0.6921(2) -0.6046(2)
O13A O -0.2631(3) 0.7062(2) -0.2840(2)
O14A O -0.3872(2) 0.4779(2) -0.0964(2)
O15A O -0.2745(2) 0.6840(2) -0.0786(2)
O16A O -0.5220(2) 0.6024(2) -0.2056(2)
C1A C -0.1491(4) 0.0818(3) -0.1024(3)
C2A C -0.2554(4) 0.0710(3) -0.1028(3)
H1A H -0.29602 0.09170 -0.05273
H2A H -0.26867 0.01322 -0.10008
C3A C -0.2813(3) 0.1942(3) -0.1819(3)
C4A C -0.2579(3) 0.2420(3) -0.1240(3)
H3A H -0.24273 0.21729 -0.07584
C5A C -0.2575(3) 0.3261(3) -0.1382(3)
H4A H -0.24274 0.35756 -0.09906
C6A C -0.2788(3) 0.3641(3) -0.2101(3)
C7A C -0.3016(3) 0.3153(3) -0.2673(3)
H5A H -0.31502 0.33969 -0.31626
C8A C -0.3048(3) 0.2309(3) -0.2528(3)
H6A H -0.32256 0.19944 -0.29053
C9A C -0.2738(3) 0.4542(3) -0.2282(3)
C10A C -0.3320(3) 0.5061(3) -0.1741(3)
C11A C -0.3278(3) 0.5900(3) -0.1946(3)
C12A C -0.2626(4) 0.6231(3) -0.2660(3)
C13A C -0.2013(4) 0.5719(3) -0.3199(3)
C14A C -0.2091(3) 0.4888(3) -0.3006(3)
H7A H -0.17020 0.45467 -0.33682
C15A C -0.4749(4) 0.4358(3) -0.0954(3)
H8A H -0.51001 0.42198 -0.03847
H9A H -0.51467 0.47021 -0.12364
H10A H -0.45885 0.38698 -0.12337
C16A C -0.1821(5) 0.7477(4) -0.2694(4)
H11A H -0.18842 0.80512 -0.28272
H12A H -0.18080 0.73742 -0.21159
H13A H -0.12278 0.72832 -0.30412
C17A C -0.1271(4) 0.6051(3) -0.3956(3)
C18A C -0.1480(4) 0.6695(3) -0.4495(3)
H14A H -0.20987 0.69267 -0.43764
C19A C -0.0793(4) 0.7000(3) -0.5199(3)
H15A H -0.09552 0.74222 -0.55535
C20A C 0.0135(4) 0.6672(3) -0.5373(3)
C21A C 0.0366(4) 0.6029(3) -0.4839(3)
H16A H 0.09911 0.58092 -0.49505
C22A C -0.0339(4) 0.5718(3) -0.4142(3)
H17A H -0.01850 0.52837 -0.37979
C23A C 0.0564(4) 0.7359(3) -0.6729(3)
H18A H 0.01878 0.78316 -0.65286
H19A H 0.11362 0.75524 -0.71523
C24A C -0.0043(4) 0.6847(3) -0.7125(3)
C25A C -0.3981(3) 0.6445(3) -0.1412(3)
C26A C -0.3692(3) 0.6918(3) -0.0864(3)
C27A C -0.4340(3) 0.7450(3) -0.0407(3)
C28A C -0.5309(3) 0.7460(3) -0.0483(3)
H20A H -0.57507 0.78067 -0.01690
C29A C -0.5634(3) 0.6982(3) -0.0999(3)
C30A C -0.4945(3) 0.6485(3) -0.1492(3)
C31A C -0.5158(5) 0.6464(4) -0.2841(3)
H21A H -0.53909 0.61322 -0.31991
H22A H -0.55479 0.69481 -0.27654
H23A H -0.44916 0.66110 -0.30932
C32A C -0.2669(4) 0.6289(3) -0.0089(3)
H24A H -0.20059 0.62677 -0.00437
H25A H -0.30804 0.64715 0.04140
H26A H -0.28707 0.57564 -0.01687
C33A C -0.4064(3) 0.8002(3) 0.0156(3)
C34A C -0.3208(3) 0.8439(3) -0.0058(3)
H27A H -0.27564 0.83489 -0.05539
C35A C -0.2994(3) 0.9010(3) 0.0441(3)
H28A H -0.24143 0.93012 0.02788
C36A C -0.3672(3) 0.9136(3) 0.1193(3)
C37A C -0.4522(3) 0.8699(3) 0.1434(3)
H29A H -0.49636 0.87790 0.19384
C38A C -0.4724(3) 0.8136(3) 0.0923(3)
H30A H -0.53022 0.78426 0.10897
C39A C -0.2622(3) 1.0084(3) 0.1532(3)
H31A H -0.25016 1.03587 0.09721
H32A H -0.26374 1.04936 0.19204
C40A C -0.1795(4) 0.9496(3) 0.1579(3)
C41A C -0.6692(3) 0.6968(3) -0.0984(3)
C42A C -0.7209(4) 0.7687(3) -0.1013(3)
H33A H -0.68816 0.81810 -0.10947
C43A C -0.8210(3) 0.7682(3) -0.0921(3)
H34A H -0.85459 0.81712 -0.09512
C44A C -0.8703(3) 0.6960(3) -0.0786(3)
C45A C -0.8186(4) 0.6226(3) -0.0767(3)
H35A H -0.85156 0.57322 -0.06826
C46A C -0.7193(4) 0.6234(3) -0.0873(3)
H36A H -0.68521 0.57445 -0.08713
C47A C -1.0230(4) 0.7596(3) -0.0772(3)
H37A H -0.99151 0.78802 -0.13063
H38A H -1.08769 0.74446 -0.08039
C48A C -1.0336(3) 0.8186(3) -0.0098(3)
O17A O 0.0775(3) 0.1017(2) -0.3077(2)
Mn1* Mn -1.04667(5) 0.84116(4) 0.18161(4)
Mn1** Mn -0.04667(5) 0.84116(4) -0.81839(4)
Mn1A* Mn 0.04667(5) 0.15884(4) 0.81839(4)
Mn1A** Mn 1.04667(5) 0.15884(4) -0.18161(4)
Mn2* Mn -1.00000 1.00000 0.00000
Mn2** Mn 0.00000 0.00000 0.00000
Mn2*** Mn 1.00000 0.00000 0.00000
O1A* O -0.1269(2) 1.0549(2) -0.0366(2)
O5* O 0.0937(2) 1.0240(2) -0.1283(2)
O7* O 0.0495(3) 1.1095(2) 0.0338(2)
O7A* O -0.0495(3) 0.8905(2) -0.0338(2)
O8* O 0.0265(2) 0.2093(2) -0.0613(2)
O8A* O -0.0265(2) 0.7907(2) 0.0613(2)
O10* O 0.0477(3) 0.2769(2) -0.2362(2)
O10A* O -0.0477(3) 0.7231(2) 0.2362(2)
#END
