
#######################################################################
#
#                 Cambridge Crystallographic Data Centre
#                                CCDC
#
#######################################################################
#
# If this CIF has been generated from an entry in the Cambridge
# Structural Database, then it will include bibliographic, chemical,
# crystal, experimental, refinement or atomic coordinate data resulting
# from the CCDC's data processing and validation procedures.
#
#######################################################################

data_CSD_CIF_ZEYRED
_audit_creation_date 2018-03-26
_audit_creation_method CSD-ConQuest-V1
_database_code_CSD ZEYRED
_database_code_depnum_ccdc_archive 'CCDC 1581537'
_chemical_formula_sum 'C106 H104 N4 O34 Zn3'
_chemical_formula_moiety
;
(C96 H76 O32 Zn3 2-)n,2(C3 H7 N1 O1),2(C2 H7 N1 1+)
;
_journal_coden_Cambridge 1147
_journal_volume 18
_journal_year 2018
_journal_page_first 2129
_journal_name_full 'Cryst.Growth Des. '
loop_
_publ_author_name
"S.Seth"
"G.Savitha"
"J.N.Moorthy"
_chemical_name_systematic
;
catena-[ bis(dimethylammonium) 
bis(\m-3,3',5,5'-tetrakis(4-(a-carboxylato)methoxyphenyl)-2,2',6,6'-tetrametho
xy-1,1'-biphenyl)-tri-zinc(ii) N,N-dimethylformamide unknown solvate]
;
_cell_volume   3662.265
_exptl_crystal_colour 'colorless'
_exptl_crystal_description 'prism'
_diffrn_ambient_temperature 100
_refine_special_details
;
Disordered dimethylammonium and solvent molecules were not modelled and the 
disordered density was taken into account using the SQUEEZE/PLATON procedure.
;
#These two values have been output from a single CSD field.
_refine_ls_R_factor_gt 0.1037
_refine_ls_wR_factor_gt 0.1037
_symmetry_cell_setting triclinic
_symmetry_space_group_name_H-M 'P -1'
_symmetry_Int_Tables_number 2
loop_
_symmetry_equiv_pos_site_id
_symmetry_equiv_pos_as_xyz
1 x,y,z
2 -x,-y,-z
_cell_length_a 13.8543(9)
_cell_length_b 16.3940(11)
_cell_length_c 16.6817(11)
_cell_angle_alpha 83.660(1)
_cell_angle_beta 76.555(1)
_cell_angle_gamma 89.148(2)
_cell_formula_units_Z 1
loop_
_atom_type_symbol
_atom_type_radius_bond
C 0.68
H 0.23
N 0.68
O 0.68
Zn 1.22
loop_
_atom_site_label
_atom_site_type_symbol
_atom_site_fract_x
_atom_site_fract_y
_atom_site_fract_z
Zn1 Zn 0.46677(4) 0.82197(4) 0.15757(4)
Zn2 Zn 0.50000 1.00000 0.00000
O1 O 0.4792(3) 0.7794(2) 0.0513(2)
O2 O 0.4389(2) 0.8919(2) -0.0222(2)
O3 O 0.5296(3) 0.6990(2) -0.0859(3)
O4 O 1.4135(2) 0.9922(2) 0.1259(2)
O5 O 1.3396(3) 0.8771(2) 0.1926(2)
O6 O 1.1555(3) 0.9417(3) 0.1974(3)
O7 O 1.2341(2) 0.6881(2) -0.0764(2)
O8 O 0.9800(2) 0.6109(2) -0.2038(2)
O9 O 1.1152(2) 0.48183(19) -0.0942(2)
O10 O 1.2401(3) 0.7135(2) -0.2850(2)
O11 O 1.2208(3) 0.1130(2) -0.1747(2)
O12 O 1.3761(2) 0.0583(2) -0.0332(2)
O13 O 1.4103(2) 0.1227(2) -0.1622(2)
O14 O 1.5788(3) 0.7064(3) -0.6058(2)
O15 O 1.4992(3) 0.6120(2) -0.6951(2)
O16 O 1.4614(3) 0.7168(2) -0.7764(2)
C1 C 0.4641(3) 0.8188(3) -0.0126(3)
C2 C 0.4753(4) 0.7739(4) -0.0893(4)
H1 H 0.40977 0.76174 -0.09663
H2 H 0.50881 0.81006 -0.13748
C3 C 0.6294(4) 0.7056(3) -0.0901(3)
C4 C 0.6801(4) 0.7793(3) -0.0987(4)
H3 H 0.64693 0.82892 -0.10111
C5 C 0.7820(4) 0.7775(3) -0.1038(3)
H4 H 0.81643 0.82696 -0.11011
C6 C 0.8338(4) 0.7051(3) -0.0997(3)
C7 C 0.7799(4) 0.6318(3) -0.0928(3)
H5 H 0.81243 0.58179 -0.09208
C8 C 0.6793(4) 0.6334(3) -0.0871(3)
H6 H 0.64450 0.58422 -0.08103
C9 C 0.9398(3) 0.7038(3) -0.0975(3)
C10 C 1.0094(3) 0.6561(3) -0.1478(3)
C11 C 1.1072(3) 0.6502(3) -0.1397(3)
C12 C 1.1369(3) 0.6951(3) -0.0835(3)
C13 C 1.0719(3) 0.7463(3) -0.0355(3)
C14 C 0.9744(3) 0.7486(3) -0.0456(3)
H7 H 0.93017 0.78300 -0.01482
C15 C 1.0998(3) 0.7949(3) 0.0240(3)
C16 C 1.1833(3) 0.8463(3) 0.0047(3)
H8 H 1.22589 0.84704 -0.04748
C17 C 1.2056(3) 0.8961(3) 0.0594(3)
H9 H 1.26221 0.92936 0.04458
C18 C 1.1418(4) 0.8957(3) 0.1374(3)
C19 C 1.0582(4) 0.8459(4) 0.1584(3)
H10 H 1.01588 0.84557 0.21062
C20 C 1.0369(3) 0.7969(3) 0.1028(3)
H11 H 0.97966 0.76452 0.11786
C21 C 1.2409(4) 0.9949(3) 0.1755(4)
H12 H 1.23683 1.03085 0.21857
H13 H 1.23891 1.02913 0.12458
C22 C 1.3396(4) 0.9517(3) 0.1633(3)
C23 C 0.9845(5) 0.6588(4) -0.2814(3)
H14 H 0.95850 0.62723 -0.31693
H15 H 1.05218 0.67398 -0.30695
H16 H 0.94573 0.70741 -0.27243
C24 C 1.2452(4) 0.6307(3) -0.0076(4)
H17 H 1.31363 0.62895 -0.00476
H18 H 1.22394 0.57712 -0.01501
H19 H 1.20547 0.64764 0.04289
C25 C 1.1755(3) 0.5963(3) -0.1920(3)
C26 C 1.1710(3) 0.5107(3) -0.1715(3)
C27 C 1.2264(3) 0.4588(3) -0.2264(3)
C28 C 1.2876(4) 0.4944(3) -0.2982(3)
H20 H 1.32443 0.46010 -0.33448
C29 C 1.2978(3) 0.5790(3) -0.3199(3)
C30 C 1.2405(4) 0.6289(3) -0.2660(3)
C31 C 1.3252(5) 0.7542(4) -0.2727(4)
H21 H 1.31613 0.81253 -0.27963
H22 H 1.38312 0.73982 -0.31250
H23 H 1.33349 0.73768 -0.21770
C32 C 1.0230(4) 0.4425(3) -0.0924(3)
H24 H 0.99057 0.42399 -0.03610
H25 H 1.03538 0.39640 -0.12406
H26 H 0.98127 0.48078 -0.11589
C33 C 1.2198(3) 0.3681(3) -0.2084(3)
C34 C 1.2008(3) 0.3199(3) -0.2668(3)
H27 H 1.18791 0.34549 -0.31575
C35 C 1.2006(4) 0.2350(3) -0.2542(3)
H28 H 1.18782 0.20404 -0.29416
C36 C 1.2197(3) 0.1966(3) -0.1807(3)
C37 C 1.2382(3) 0.2428(3) -0.1213(3)
H29 H 1.25155 0.21748 -0.07244
C38 C 1.2363(3) 0.3276(3) -0.1358(3)
H30 H 1.24664 0.35845 -0.09495
C39 C 1.2482(4) 0.0716(3) -0.1042(4)
H31 H 1.23766 0.01317 -0.10382
H32 H 1.20431 0.08876 -0.05483
C40 C 1.3537(3) 0.0857(3) -0.0996(3)
C41 C 1.3703(4) 0.6122(3) -0.3969(3)
C42 C 1.3443(4) 0.6778(4) -0.4480(4)
H33 H 1.28180 0.70111 -0.43433
C43 C 1.4134(5) 0.7083(4) -0.5200(4)
H34 H 1.39623 0.75133 -0.55505
C44 C 1.5056(4) 0.6755(4) -0.5391(3)
C45 C 1.5312(4) 0.6102(4) -0.4887(3)
H35 H 1.59440 0.58800 -0.50148
C46 C 1.4618(4) 0.5782(3) -0.4191(3)
H36 H 1.47790 0.53253 -0.38662
C47 C 1.5461(4) 0.7445(4) -0.6762(3)
H37 H 1.60259 0.77059 -0.71589
H38 H 1.49908 0.78709 -0.65843
C48 C 1.4992(4) 0.6869(3) -0.7172(3)
O17 O 0.2809(3) 0.5422(3) 0.1576(3)
N1 N 0.1595(4) 0.6108(4) 0.2384(4)
C49 C 0.2189(5) 0.6852(4) 0.2285(5)
H39 H 0.28765 0.67119 0.22121
H40 H 0.19844 0.71349 0.27704
H41 H 0.20971 0.72017 0.18082
C50 C 0.0600(5) 0.6104(4) 0.2903(5)
H42 H 0.03139 0.55639 0.29657
H43 H 0.02015 0.64889 0.26490
H44 H 0.06235 0.62556 0.34373
C51 C 0.1980(5) 0.5459(5) 0.2039(5)
H45 H 0.15906 0.49844 0.21534
Zn1A Zn 0.53323(4) 1.17803(4) -0.15757(4)
O1A O 0.5208(3) 1.2206(2) -0.0513(2)
O2A O 0.5611(2) 1.1081(2) 0.0222(2)
O3A O 0.4704(3) 1.3010(2) 0.0859(3)
O4A O -0.4135(2) 1.0078(2) -0.1259(2)
O5A O -0.3396(3) 1.1229(2) -0.1926(2)
O6A O -0.1555(3) 1.0583(3) -0.1974(3)
O7A O -0.2341(2) 1.3119(2) 0.0764(2)
O8A O 0.0200(2) 1.3891(2) 0.2038(2)
O9A O -0.1152(2) 1.51817(19) 0.0942(2)
O10A O -0.2401(3) 1.2865(2) 0.2850(2)
O11A O -0.2208(3) 1.8870(2) 0.1747(2)
O12A O -0.3761(2) 1.9417(2) 0.0332(2)
O13A O -0.4103(2) 1.8773(2) 0.1622(2)
O14A O -0.5788(3) 1.2936(3) 0.6058(2)
O15A O -0.4992(3) 1.3880(2) 0.6951(2)
O16A O -0.4614(3) 1.2832(2) 0.7764(2)
C1A C 0.5359(3) 1.1812(3) 0.0126(3)
C2A C 0.5247(4) 1.2261(4) 0.0893(4)
H1A H 0.59023 1.23826 0.09663
H2A H 0.49119 1.18994 0.13748
C3A C 0.3706(4) 1.2944(3) 0.0901(3)
C4A C 0.3199(4) 1.2207(3) 0.0987(4)
H3A H 0.35307 1.17108 0.10111
C5A C 0.2180(4) 1.2225(3) 0.1038(3)
H4A H 0.18357 1.17304 0.11011
C6A C 0.1662(4) 1.2949(3) 0.0997(3)
C7A C 0.2201(4) 1.3682(3) 0.0928(3)
H5A H 0.18757 1.41821 0.09208
C8A C 0.3207(4) 1.3666(3) 0.0871(3)
H6A H 0.35550 1.41578 0.08103
C9A C 0.0602(3) 1.2962(3) 0.0975(3)
C10A C -0.0094(3) 1.3439(3) 0.1478(3)
C11A C -0.1072(3) 1.3498(3) 0.1397(3)
C12A C -0.1369(3) 1.3049(3) 0.0835(3)
C13A C -0.0719(3) 1.2537(3) 0.0355(3)
C14A C 0.0256(3) 1.2514(3) 0.0456(3)
H7A H 0.06983 1.21700 0.01482
C15A C -0.0998(3) 1.2051(3) -0.0240(3)
C16A C -0.1833(3) 1.1537(3) -0.0047(3)
H8A H -0.22589 1.15296 0.04748
C17A C -0.2056(3) 1.1039(3) -0.0594(3)
H9A H -0.26221 1.07064 -0.04458
C18A C -0.1418(4) 1.1043(3) -0.1374(3)
C19A C -0.0582(4) 1.1541(4) -0.1584(3)
H10A H -0.01588 1.15443 -0.21062
C20A C -0.0369(3) 1.2031(3) -0.1028(3)
H11A H 0.02034 1.23548 -0.11786
C21A C -0.2409(4) 1.0051(3) -0.1755(4)
H12A H -0.23683 0.96915 -0.21857
H13A H -0.23891 0.97087 -0.12458
C22A C -0.3396(4) 1.0483(3) -0.1633(3)
C23A C 0.0155(5) 1.3412(4) 0.2814(3)
H14A H 0.04150 1.37277 0.31693
H15A H -0.05218 1.32601 0.30695
H16A H 0.05427 1.29259 0.27243
C24A C -0.2452(4) 1.3693(3) 0.0076(4)
H17A H -0.31363 1.37105 0.00476
H18A H -0.22394 1.42288 0.01501
H19A H -0.20547 1.35236 -0.04289
C25A C -0.1755(3) 1.4037(3) 0.1920(3)
C26A C -0.1710(3) 1.4893(3) 0.1715(3)
C27A C -0.2264(3) 1.5412(3) 0.2264(3)
C28A C -0.2876(4) 1.5056(3) 0.2982(3)
H20A H -0.32443 1.53990 0.33448
C29A C -0.2978(3) 1.4210(3) 0.3199(3)
C30A C -0.2405(4) 1.3711(3) 0.2660(3)
C31A C -0.3252(5) 1.2458(4) 0.2727(4)
H21A H -0.31613 1.18747 0.27963
H22A H -0.38312 1.26018 0.31250
H23A H -0.33349 1.26232 0.21770
C32A C -0.0230(4) 1.5575(3) 0.0924(3)
H24A H 0.00943 1.57601 0.03610
H25A H -0.03538 1.60360 0.12406
H26A H 0.01873 1.51922 0.11589
C33A C -0.2198(3) 1.6319(3) 0.2084(3)
C34A C -0.2008(3) 1.6801(3) 0.2668(3)
H27A H -0.18791 1.65451 0.31575
C35A C -0.2006(4) 1.7650(3) 0.2542(3)
H28A H -0.18782 1.79596 0.29416
C36A C -0.2197(3) 1.8034(3) 0.1807(3)
C37A C -0.2382(3) 1.7572(3) 0.1213(3)
H29A H -0.25155 1.78252 0.07244
C38A C -0.2363(3) 1.6724(3) 0.1358(3)
H30A H -0.24664 1.64155 0.09495
C39A C -0.2482(4) 1.9284(3) 0.1042(4)
H31A H -0.23766 1.98683 0.10382
H32A H -0.20431 1.91125 0.05483
C40A C -0.3537(3) 1.9143(3) 0.0996(3)
C41A C -0.3703(4) 1.3878(3) 0.3969(3)
C42A C -0.3443(4) 1.3222(4) 0.4480(4)
H33A H -0.28180 1.29889 0.43433
C43A C -0.4134(5) 1.2917(4) 0.5200(4)
H34A H -0.39623 1.24867 0.55505
C44A C -0.5056(4) 1.3245(4) 0.5391(3)
C45A C -0.5312(4) 1.3898(4) 0.4887(3)
H35A H -0.59440 1.41200 0.50148
C46A C -0.4618(4) 1.4218(3) 0.4191(3)
H36A H -0.47790 1.46747 0.38662
C47A C -0.5461(4) 1.2555(4) 0.6762(3)
H37A H -0.60259 1.22941 0.71589
H38A H -0.49908 1.21291 0.65843
C48A C -0.4992(4) 1.3131(3) 0.7172(3)
Zn1* Zn -0.53323(4) 1.82197(4) 0.15757(4)
Zn1** Zn 1.46677(4) 0.82197(4) -0.84243(4)
Zn1*** Zn 1.46677(4) 0.82197(4) 0.15757(4)
Zn1A* Zn -0.46677(4) 1.17803(4) -0.15757(4)
Zn1A** Zn -0.46677(4) 1.17803(4) 0.84243(4)
Zn1A*** Zn 1.53323(4) 0.17803(4) -0.15757(4)
Zn2* Zn -0.50000 1.00000 0.00000
Zn2** Zn -0.50000 2.00000 0.00000
Zn2*** Zn 1.50000 0.00000 0.00000
Zn2**** Zn 1.50000 1.00000 0.00000
O4* O 0.4135(2) 0.9922(2) 0.1259(2)
O4A* O 0.5865(2) 1.0078(2) -0.1259(2)
O5* O 0.3396(3) 0.8771(2) 0.1926(2)
O5A* O 0.6604(3) 1.1229(2) -0.1926(2)
O12* O 0.3761(2) 1.0583(2) -0.0332(2)
O12A* O 0.6239(2) 0.9417(2) 0.0332(2)
O13* O 0.4103(2) 1.1227(2) -0.1622(2)
O13A* O 0.5897(2) 0.8773(2) 0.1622(2)
O16* O 0.4614(3) 0.7168(2) 0.2236(2)
O16A* O 0.5386(3) 1.2832(2) -0.2236(2)
#END
