
#######################################################################
#
#                 Cambridge Crystallographic Data Centre
#                                CCDC
#
#######################################################################
#
# If this CIF has been generated from an entry in the Cambridge
# Structural Database, then it will include bibliographic, chemical,
# crystal, experimental, refinement or atomic coordinate data resulting
# from the CCDC's data processing and validation procedures.
#
#######################################################################

data_CSD_CIF_ZICVIT
_audit_creation_date 2018-03-28
_audit_creation_method CSD-ConQuest-V1
_database_code_CSD ZICVIT
_database_code_depnum_ccdc_archive 'CCDC 1578978'
_chemical_formula_sum 'C28 H50 Bi2 I9 N8 O8 Pr1'
_chemical_formula_moiety
;
(C28 H50 N8 O8 Pr1 3+)n,Bi2 I9 3-
;
_journal_coden_Cambridge 1747
_journal_volume 5
_journal_year 2018
_journal_page_first 1162
_journal_name_full 'Inorg.Chem.Front. '
loop_
_publ_author_name
"Dao-Hua Wang"
"Li-Ming Zhao"
"Xiao-Yan Lin"
"Yu-Kang Wang"
"Wen-Ting Zhang"
"Kai-Yue Song"
"Hao-Hong Li"
"Zhi-Rong Chen"
_chemical_name_systematic
;
catena-[(\m-4,4'-bipyridine 
N,N'-dioxide)-hexakis(N,N-dimethylformamide)-praseodymium(iii) 
tris(\m-iodo)-hexa-iodo-di-bismuth(iii)]
;
_cell_volume   5683.840
_exptl_crystal_colour 'red'
_exptl_crystal_density_diffrn 2.72
_exptl_crystal_description 'Block'
_diffrn_ambient_temperature 293
#These two values have been output from a single CSD field.
_refine_ls_R_factor_gt 0.0602
_refine_ls_wR_factor_gt 0.0602
_symmetry_cell_setting monoclinic
_symmetry_space_group_name_H-M 'P 21/n'
_symmetry_Int_Tables_number 14
loop_
_symmetry_equiv_pos_site_id
_symmetry_equiv_pos_as_xyz
1 x,y,z
2 1/2-x,1/2+y,1/2-z
3 -x,-y,-z
4 -1/2+x,-1/2-y,-1/2+z
_cell_length_a 13.1933(19)
_cell_length_b 31.703(4)
_cell_length_c 13.6159(19)
_cell_angle_alpha 90
_cell_angle_beta 93.601(2)
_cell_angle_gamma 90
_cell_formula_units_Z 4
loop_
_atom_type_symbol
_atom_type_radius_bond
C 0.68
H 0.23
Bi 1.48
I 1.40
N 0.68
O 0.68
Pr 2.03
loop_
_atom_site_label
_atom_site_type_symbol
_atom_site_fract_x
_atom_site_fract_y
_atom_site_fract_z
Bi1 Bi 1.00300(4) 0.12607(2) 0.09368(5)
Bi2 Bi 1.28578(4) 0.14912(2) -0.01104(5)
I1 I 0.91847(9) 0.04687(4) 0.16874(10)
I2 I 0.81413(9) 0.14176(5) -0.02755(12)
I3 I 0.95677(11) 0.17596(5) 0.26709(11)
I4 I 1.12138(9) 0.07974(4) -0.08712(9)
I5 I 1.09729(9) 0.20980(4) -0.00052(11)
I6 I 1.22770(9) 0.10873(5) 0.19884(10)
I7 I 1.31814(9) 0.17871(5) -0.21288(10)
I8 I 1.46219(9) 0.09026(4) -0.02541(10)
I9 I 1.40557(11) 0.21748(6) 0.08849(13)
Pr1 Pr 0.67214(4) 0.09640(2) 0.56003(5)
O1 O 0.8032(6) 0.0539(4) 0.4974(8)
O2 O 0.7109(10) 0.1342(5) 0.4239(11)
O3 O 0.6049(7) 0.0545(4) 0.4307(8)
O4 O 0.5244(8) 0.1352(4) 0.5038(10)
O5 O 1.5331(6) 0.0584(4) 0.6235(9)
O6 O 0.6392(10) 0.1420(5) 0.6834(10)
O7 O 0.7335(7) 0.0563(4) 0.6942(9)
O8 O 0.8242(9) 0.1303(5) 0.6059(11)
N1 N 0.9039(8) 0.0567(4) 0.5148(10)
N2 N 0.6772(11) 0.1756(5) 0.2911(12)
N3 N 0.5822(9) 0.0355(4) 0.2693(10)
N4 N 0.4052(11) 0.1868(5) 0.4821(14)
N5 N 1.4345(7) 0.0614(4) 0.6019(10)
N6 N 0.6342(10) 0.1967(5) 0.7918(12)
N7 N 0.7441(9) 0.0292(4) 0.8497(10)
N8 N 0.9741(13) 0.1632(6) 0.6326(15)
C1 C 0.9492(11) 0.0449(6) 0.6028(13)
H1 H 0.90970 0.03510 0.65220
C2 C 1.0508(10) 0.0472(6) 0.6194(12)
H2 H 1.08000 0.04070 0.68150
C3 C 1.0635(11) 0.0702(6) 0.4537(13)
H3 H 1.10180 0.07800 0.40160
C4 C 1.1116(10) 0.0590(5) 0.5465(13)
C5 C 0.960(1) 0.0692(6) 0.4428(12)
H4 H 0.92790 0.07760 0.38320
C6 C 0.679(2) 0.2174(7) 0.2487(19)
H5 H 0.70340 0.23730 0.29790
H6 H 0.61150 0.22520 0.22470
H7 H 0.72300 0.21760 0.19520
C7 C 0.7028(14) 0.1696(9) 0.3823(18)
H8 H 0.71660 0.19330 0.42100
C8 C 0.653(2) 0.1413(8) 0.227(2)
H9 H 0.59190 0.14760 0.18760
H10 H 0.64330 0.11630 0.26490
H11 H 0.70770 0.13690 0.18470
C9 C 0.6383(11) 0.0413(5) 0.3508(12)
H12 H 0.70730 0.03530 0.35030
C10 C 0.6227(14) 0.0200(7) 0.1794(14)
H13 H 0.69450 0.01540 0.19030
H14 H 0.61060 0.04050 0.12810
H15 H 0.58990 -0.00600 0.16040
C11 C 0.4751(12) 0.0464(8) 0.2654(15)
H16 H 0.43690 0.02290 0.28800
H17 H 0.45240 0.05300 0.19880
H18 H 0.46540 0.07040 0.30670
C12 C 0.4779(14) 0.1654(8) 0.5323(15)
H19 H 0.49510 0.17460 0.59610
C13 C 0.3529(16) 0.2209(7) 0.521(2)
H20 H 0.37310 0.22410 0.58930
H21 H 0.28120 0.21570 0.51320
H22 H 0.36870 0.24620 0.48620
C14 C 0.369(3) 0.1756(13) 0.386(3)
H23 H 0.42100 0.18070 0.34090
H24 H 0.31020 0.19230 0.36660
H25 H 0.35100 0.14630 0.38400
C15 C 1.3941(11) 0.0478(7) 0.5125(14)
H26 H 1.43670 0.03840 0.46510
C16 C 1.2903(10) 0.0479(6) 0.4926(13)
H27 H 1.26320 0.03940 0.43100
C17 C 1.2259(9) 0.0606(5) 0.5642(11)
C18 C 1.2698(10) 0.0736(6) 0.6541(13)
H28 H 1.22870 0.08230 0.70320
C19 C 1.3708(11) 0.0737(5) 0.6711(12)
H29 H 1.39830 0.08240 0.73230
C20 C 0.6141(13) 0.1579(7) 0.7611(17)
H30 H 0.57760 0.14090 0.80190
C21 C 0.6003(15) 0.2116(7) 0.8830(15)
H31 H 0.55130 0.23360 0.87070
H32 H 0.65720 0.22230 0.92280
H33 H 0.56970 0.18880 0.91690
C22 C 0.6964(18) 0.2257(8) 0.7399(18)
H34 H 0.76580 0.21640 0.74580
H35 H 0.69140 0.25340 0.76770
H36 H 0.67320 0.22640 0.67170
C23 C 0.6960(11) 0.0481(6) 0.7741(13)
H37 H 0.62890 0.05590 0.78080
C24 C 0.6972(12) 0.0168(6) 0.9418(14)
H38 H 0.72050 0.03530 0.99410
H39 H 0.71620 -0.01170 0.95860
H40 H 0.62460 0.01860 0.93220
C25 C 0.8525(12) 0.0184(8) 0.8442(15)
H41 H 0.86060 0.00060 0.78810
H42 H 0.87600 0.00370 0.90290
H43 H 0.89120 0.04380 0.83790
C26 C 0.899(3) 0.1505(13) 0.581(3)
H44 H 0.89830 0.15730 0.51480
C27 C 1.052(3) 0.1784(9) 0.576(2)
H45 H 1.07790 0.15560 0.53800
H46 H 1.10590 0.18990 0.61810
H47 H 1.02540 0.19990 0.53160
C28 C 0.9982(19) 0.1733(11) 0.7388(18)
H48 H 1.00550 0.20330 0.74670
H49 H 1.06040 0.15960 0.76100
H50 H 0.94410 0.16350 0.77690
Pr1* Pr 1.67214(4) 0.09640(2) 0.56003(5)
O5* O 0.5331(6) 0.0584(4) 0.6235(9)
#END
