
#######################################################################
#
#                 Cambridge Crystallographic Data Centre
#                                CCDC
#
#######################################################################
#
# If this CIF has been generated from an entry in the Cambridge
# Structural Database, then it will include bibliographic, chemical,
# crystal, experimental, refinement or atomic coordinate data resulting
# from the CCDC's data processing and validation procedures.
#
#######################################################################

data_CSD_CIF_ZICVEP
_audit_creation_date 2018-03-28
_audit_creation_method CSD-ConQuest-V1
_database_code_CSD ZICVEP
_database_code_depnum_ccdc_archive 'CCDC 1578977'
_chemical_formula_sum 'C28 H50 Bi2 I9 La1 N8 O8'
_chemical_formula_moiety
;
(C28 H50 La1 N8 O8 3+)n,Bi2 I9 3-
;
_journal_coden_Cambridge 1747
_journal_volume 5
_journal_year 2018
_journal_page_first 1162
_journal_name_full 'Inorg.Chem.Front. '
loop_
_publ_author_name
"Dao-Hua Wang"
"Li-Ming Zhao"
"Xiao-Yan Lin"
"Yu-Kang Wang"
"Wen-Ting Zhang"
"Kai-Yue Song"
"Hao-Hong Li"
"Zhi-Rong Chen"
_chemical_name_systematic
;
catena-[(\m-4,4'-bipyridine 
N,N'-dioxide)-hexakis(N,N-dimethylformamide)-lanthanum(iii) 
tris(\m-iodo)-hexa-iodo-di-bismuth(iii)]
;
_cell_volume   5741.842
_exptl_crystal_colour 'red'
_exptl_crystal_density_diffrn 2.69
_exptl_crystal_description 'Tabloid'
_diffrn_ambient_temperature 293
#These two values have been output from a single CSD field.
_refine_ls_R_factor_gt 0.0905
_refine_ls_wR_factor_gt 0.0905
_symmetry_cell_setting monoclinic
_symmetry_space_group_name_H-M 'P 21/c'
_symmetry_Int_Tables_number 14
loop_
_symmetry_equiv_pos_site_id
_symmetry_equiv_pos_as_xyz
1 x,y,z
2 -x,1/2+y,1/2-z
3 -x,-y,-z
4 x,-1/2-y,-1/2+z
_cell_length_a 13.368(3)
_cell_length_b 31.511(6)
_cell_length_c 18.594(3)
_cell_angle_alpha 90
_cell_angle_beta 132.855(10)
_cell_angle_gamma 90
_cell_formula_units_Z 4
loop_
_atom_type_symbol
_atom_type_radius_bond
C 0.68
H 0.23
Bi 1.48
I 1.40
La 2.07
N 0.68
O 0.68
loop_
_atom_site_label
_atom_site_type_symbol
_atom_site_fract_x
_atom_site_fract_y
_atom_site_fract_z
La1 La 0.11798(13) 0.40185(5) 0.44265(9)
O1 O -0.0875(17) 0.4434(6) 0.3801(13)
O2 O -0.055(2) 0.3562(8) 0.3050(16)
O3 O 0.0422(19) 0.4473(7) 0.3026(14)
O4 O 0.229(2) 0.3652(8) 0.3950(17)
O5 O -0.6747(16) 0.4456(5) 0.5105(12)
O6 O 0.290(3) 0.3553(10) 0.5779(18)
O7 O 0.1918(17) 0.4460(6) 0.5835(12)
O8 O 0.010(2) 0.3620(7) 0.4933(16)
N1 N -0.167(2) 0.4409(6) 0.3994(15)
N2 N -0.163(2) 0.3008(8) 0.2027(15)
N3 N -0.103(2) 0.4734(7) 0.1482(14)
N4 N 0.371(4) 0.3336(8) 0.384(3)
N5 N -0.5913(17) 0.4432(7) 0.4948(12)
N6 N 0.395(3) 0.3214(8) 0.7212(17)
N7 N 0.324(2) 0.4652(7) 0.7399(14)
N8 N -0.081(3) 0.3103(8) 0.5165(19)
C1 C -0.120(3) 0.4549(9) 0.486(2)
H1 H -0.03300 0.46630 0.53160
C2 C -0.198(3) 0.4529(10) 0.510(2)
H2 H -0.15970 0.45970 0.57260
C3 C -0.333(2) 0.4407(7) 0.4384(15)
C4 C -0.425(2) 0.4408(7) 0.4589(15)
C5 C -0.381(3) 0.4303(9) 0.5465(17)
H3 H -0.29040 0.42200 0.59730
C6 C -0.467(3) 0.4315(9) 0.5619(18)
H4 H -0.43410 0.42360 0.62290
C7 C -0.559(2) 0.4530(7) 0.3867(17)
H5 H -0.59310 0.46000 0.32480
C8 C -0.641(2) 0.4550(9) 0.4050(17)
H6 H -0.73110 0.46430 0.35680
C9 C -0.374(3) 0.4281(9) 0.3525(17)
H7 H -0.46420 0.41890 0.30380
C10 C -0.293(2) 0.4278(9) 0.3315(18)
H8 H -0.32700 0.41850 0.27100
C11 C -0.162(4) 0.3392(11) 0.228(3)
H9 H -0.24260 0.35470 0.18800
C12 C -0.041(4) 0.2735(13) 0.257(3)
H10 H 0.02440 0.28640 0.25780
H11 H -0.06700 0.24630 0.22600
H12 H -0.00210 0.27020 0.32330
C13 C -0.279(4) 0.2823(12) 0.119(3)
H13 H -0.35600 0.29130 0.10980
H14 H -0.27070 0.25190 0.12620
H15 H -0.29190 0.29060 0.06390
C14 C -0.077(3) 0.4549(9) 0.2200(18)
H16 H -0.15040 0.44620 0.21170
C15 C 0.007(4) 0.4837(14) 0.153(2)
H17 H 0.06920 0.50310 0.20630
H18 H -0.02940 0.49670 0.09260
H19 H 0.05520 0.45830 0.16370
C16 C -0.239(3) 0.4814(11) 0.0556(19)
H20 H -0.25640 0.46350 0.00620
H21 H -0.24660 0.51060 0.03770
H22 H -0.30400 0.47530 0.06090
C17 C 0.331(4) 0.3462(13) 0.426(3)
H23 H 0.39010 0.33960 0.49240
C18 C 0.505(5) 0.3187(14) 0.434(3)
H24 H 0.56750 0.33030 0.49930
H25 H 0.53050 0.32750 0.39930
H26 H 0.50630 0.28830 0.43790
C19 C 0.280(5) 0.3311(19) 0.280(4)
H27 H 0.19150 0.34090 0.25130
H28 H 0.27380 0.30220 0.26130
H29 H 0.31390 0.34850 0.25850
C20 C 0.337(4) 0.3219(12) 0.632(3)
H30 H 0.32700 0.29600 0.60390
C21 C 0.424(7) 0.3586(15) 0.775(4)
H31 H 0.52120 0.36170 0.82700
H32 H 0.38340 0.35660 0.80150
H33 H 0.38770 0.38270 0.73190
C22 C 0.454(6) 0.2822(13) 0.774(4)
H34 H 0.38900 0.26730 0.77100
H35 H 0.53450 0.28800 0.84070
H36 H 0.47740 0.26520 0.74410
C23 C 0.297(3) 0.4592(9) 0.6570(18)
H37 H 0.36470 0.46580 0.65690
C24 C 0.456(3) 0.4803(10) 0.829(2)
H38 H 0.50040 0.45840 0.87830
H39 H 0.44380 0.50490 0.85310
H40 H 0.51210 0.48770 0.81610
C25 C 0.224(3) 0.4549(14) 0.746(2)
H41 H 0.19160 0.48060 0.75250
H42 H 0.26510 0.43720 0.80230
H43 H 0.14820 0.44020 0.68780
C26 C -0.064(3) 0.3296(11) 0.463(2)
H44 H -0.10810 0.31900 0.40050
C27 C -0.021(8) 0.322(2) 0.610(4)
H45 H 0.07060 0.33150 0.64580
H46 H -0.01810 0.29770 0.64300
H47 H -0.07260 0.34410 0.60670
C28 C -0.174(5) 0.2744(12) 0.479(3)
H48 H -0.22960 0.27210 0.40930
H49 H -0.23090 0.27860 0.49220
H50 H -0.12190 0.24880 0.51020
Bi1 Bi -0.08567(10) 0.12630(3) 0.41035(7)
Bi2 Bi 0.29843(10) 0.14968(3) 0.51280(7)
I1 I 0.5341(2) 0.17989(8) 0.71192(16)
I2 I 0.4875(2) 0.09130(7) 0.52656(15)
I3 I 0.0291(2) 0.11025(8) 0.30314(13)
I4 I 0.21339(19) 0.08004(6) 0.58982(13)
I5 I -0.1493(3) 0.14203(8) 0.53138(17)
I6 I -0.2474(2) 0.04779(7) 0.33484(15)
I7 I 0.1039(2) 0.21001(7) 0.50492(18)
I8 I -0.3057(2) 0.17699(8) 0.23993(16)
I9 I 0.3145(3) 0.21882(10) 0.4144(2)
La1* La -0.88202(13) 0.40185(5) 0.44265(9)
O5* O 0.3253(16) 0.4456(5) 0.5105(12)
#END
