
#######################################################################
#
#                 Cambridge Crystallographic Data Centre
#                                CCDC
#
#######################################################################
#
# If this CIF has been generated from an entry in the Cambridge
# Structural Database, then it will include bibliographic, chemical,
# crystal, experimental, refinement or atomic coordinate data resulting
# from the CCDC's data processing and validation procedures.
#
#######################################################################

data_CSD_CIF_ZICVIT01
_audit_creation_date 2018-03-28
_audit_creation_method CSD-ConQuest-V1
_database_code_CSD ZICVIT01
_database_code_depnum_ccdc_archive 'CCDC 1578980'
_chemical_formula_sum 'C28 H50 Bi2 I9 N8 O8 Pr1'
_chemical_formula_moiety
;
(C28 H50 N8 O8 Pr1 3+)n,Bi2 I9 3-
;
_journal_coden_Cambridge 1747
_journal_volume 5
_journal_year 2018
_journal_page_first 1162
_journal_name_full 'Inorg.Chem.Front. '
loop_
_publ_author_name
"Dao-Hua Wang"
"Li-Ming Zhao"
"Xiao-Yan Lin"
"Yu-Kang Wang"
"Wen-Ting Zhang"
"Kai-Yue Song"
"Hao-Hong Li"
"Zhi-Rong Chen"
_chemical_name_systematic
;
catena-[(\m-4,4'-bipyridine 
N,N'-dioxide)-hexakis(N,N-dimethylformamide)-praseodymium(iii) 
tris(\m-iodo)-hexa-iodo-di-bismuth(iii)]
;
_cell_volume   5522.480
_exptl_crystal_colour 'yellow'
_exptl_crystal_density_diffrn 2.8
_exptl_crystal_description 'Block'
_diffrn_ambient_temperature 175
#These two values have been output from a single CSD field.
_refine_ls_R_factor_gt 0.0492
_refine_ls_wR_factor_gt 0.0492
_symmetry_cell_setting monoclinic
_symmetry_space_group_name_H-M 'P 21/n'
_symmetry_Int_Tables_number 14
loop_
_symmetry_equiv_pos_site_id
_symmetry_equiv_pos_as_xyz
1 x,y,z
2 1/2-x,1/2+y,1/2-z
3 -x,-y,-z
4 -1/2+x,-1/2-y,-1/2+z
_cell_length_a 13.1331(16)
_cell_length_b 31.137(4)
_cell_length_c 13.5282(17)
_cell_angle_alpha 90
_cell_angle_beta 93.366(2)
_cell_angle_gamma 90
_cell_formula_units_Z 4
loop_
_atom_type_symbol
_atom_type_radius_bond
C 0.68
H 0.23
Bi 1.48
I 1.40
N 0.68
O 0.68
Pr 2.03
loop_
_atom_site_label
_atom_site_type_symbol
_atom_site_fract_x
_atom_site_fract_y
_atom_site_fract_z
Bi1 Bi 0.00146(4) 0.12645(2) 0.09150(5)
Bi2 Bi 0.28484(4) 0.150099(19) -0.01035(5)
I1 I -0.18575(9) 0.14112(4) -0.0328(1)
I2 I -0.04822(10) 0.17792(4) 0.26324(10)
I3 I -0.08498(8) 0.04659(4) 0.16761(9)
I4 I 0.09587(9) 0.21141(4) -0.00321(10)
I5 I 0.12258(9) 0.07936(4) -0.08758(8)
I6 I 0.22516(8) 0.10887(4) 0.19969(9)
I7 I 0.32066(9) 0.18009(4) -0.21241(9)
I8 I 0.40232(10) 0.21965(5) 0.09027(11)
I9 I 0.46387(8) 0.09130(4) -0.02247(9)
Pr1 Pr -0.32694(5) 0.09671(2) 0.55937(5)
O1 O -0.1968(8) 0.0527(4) 0.4966(8)
O2 O -0.1750(9) 0.1322(5) 0.6031(11)
O3 O -0.2657(8) 0.0566(4) 0.6969(8)
O4 O -0.3591(10) 0.1430(4) 0.6852(9)
O5 O 0.5341(8) 0.0586(4) 0.6242(9)
O6 O -0.4728(9) 0.1364(4) 0.5037(10)
O7 O -0.3952(8) 0.0540(4) 0.4289(8)
O8 O -0.2868(10) 0.1347(5) 0.4213(11)
N1 N -0.0960(9) 0.0562(4) 0.5139(9)
N2 N -0.0237(16) 0.1637(7) 0.6292(15)
N3 N -0.2556(9) 0.0287(4) 0.8497(10)
N4 N -0.3659(10) 0.1964(5) 0.7958(11)
N5 N 0.4347(9) 0.0615(4) 0.603(1)
N6 N -0.5942(12) 0.1881(5) 0.4827(13)
N7 N -0.4193(10) 0.0341(4) 0.2704(9)
N8 N -0.3253(12) 0.1750(5) 0.2881(11)
C1 C -0.0384(12) 0.0684(6) 0.4404(12)
H1 H -0.06960 0.07590 0.37940
C2 C 0.0654(13) 0.0700(6) 0.4534(13)
H2 H 0.10460 0.07800 0.40140
C3 C 0.1124(11) 0.0594(5) 0.5461(11)
C4 C 0.2254(11) 0.0611(5) 0.5628(11)
C5 C 0.2926(12) 0.0485(6) 0.4923(12)
H3 H 0.26670 0.03990 0.43000
C6 C 0.3960(12) 0.0485(6) 0.5129(13)
H4 H 0.43960 0.03960 0.46500
C7 C 0.3719(12) 0.0743(5) 0.6728(13)
H5 H 0.39910 0.08320 0.73440
C8 C 0.2695(13) 0.0741(6) 0.6538(13)
H6 H 0.22760 0.08300 0.70300
C9 C 0.0508(12) 0.0471(6) 0.6197(13)
H7 H 0.07990 0.03980 0.68180
C10 C -0.0530(12) 0.0456(6) 0.6027(13)
H8 H -0.09380 0.03710 0.65310
C11 C -0.104(2) 0.1492(8) 0.573(3)
H9 H -0.10260 0.15300 0.50520
C12 C 0.0631(16) 0.1783(7) 0.5638(17)
H10 H 0.11970 0.18860 0.60530
H11 H 0.03870 0.20090 0.52040
H12 H 0.08460 0.15450 0.52520
C13 C -0.003(2) 0.1721(13) 0.7371(19)
H13 H -0.03190 0.19920 0.75410
H14 H 0.06980 0.17290 0.75190
H15 H -0.03200 0.14970 0.77480
C14 C -0.3036(11) 0.0475(5) 0.7749(12)
H16 H -0.37170 0.05460 0.78100
C15 C -0.1473(13) 0.0188(8) 0.8451(15)
H17 H -0.13860 -0.00290 0.79580
H18 H -0.12100 0.00850 0.90840
H19 H -0.11120 0.04430 0.82810
C16 C -0.3016(13) 0.0174(7) 0.9419(15)
H20 H -0.27380 0.03540 0.99450
H21 H -0.28720 -0.01210 0.95770
H22 H -0.37410 0.02150 0.93430
C17 C -0.3866(13) 0.1579(6) 0.7639(14)
H23 H -0.42480 0.14020 0.80310
C18 C -0.3011(19) 0.2259(7) 0.7424(17)
H24 H -0.23230 0.22440 0.77040
H25 H -0.32610 0.25470 0.74800
H26 H -0.30250 0.21790 0.67380
C19 C -0.4012(15) 0.2124(6) 0.8876(13)
H27 H -0.44480 0.23670 0.87450
H28 H -0.34370 0.22090 0.93030
H29 H -0.43840 0.19030 0.91910
C20 C -0.5213(14) 0.1676(6) 0.5331(13)
H30 H -0.50430 0.17730 0.59700
C21 C -0.6503(15) 0.2238(6) 0.5194(16)
H31 H -0.63190 0.22800 0.58840
H32 H -0.72210 0.21810 0.51080
H33 H -0.63440 0.24930 0.48330
C22 C -0.630(4) 0.1745(15) 0.390(3)
H34 H -0.59690 0.19030 0.34040
H35 H -0.70260 0.17950 0.38260
H36 H -0.61690 0.14440 0.38310
C23 C -0.3611(12) 0.0410(5) 0.3507(12)
H37 H -0.29150 0.03590 0.34910
C24 C -0.5264(13) 0.0445(7) 0.2655(13)
H38 H -0.56370 0.02130 0.29320
H39 H -0.54990 0.04870 0.19770
H40 H -0.53690 0.07030 0.30240
C25 C -0.3776(15) 0.0171(7) 0.1799(13)
H41 H -0.38560 0.03810 0.12810
H42 H -0.41360 -0.00860 0.16000
H43 H -0.30650 0.01070 0.19240
C26 C -0.2969(15) 0.1692(8) 0.3790(15)
H44 H -0.28230 0.19370 0.41660
C27 C -0.327(2) 0.2175(7) 0.241(2)
H45 H -0.32070 0.23920 0.29180
H46 H -0.39020 0.22120 0.20310
H47 H -0.27120 0.21980 0.19900
C28 C -0.350(2) 0.1393(8) 0.2205(18)
H48 H -0.29720 0.11800 0.22720
H49 H -0.35530 0.14970 0.15360
H50 H -0.41380 0.12670 0.23630
Pr1* Pr 0.67306(5) 0.09671(2) 0.55937(5)
O5* O -0.4659(8) 0.0586(4) 0.6242(9)
#END
