
#######################################################################
#
#                 Cambridge Crystallographic Data Centre
#                                CCDC
#
#######################################################################
#
# If this CIF has been generated from an entry in the Cambridge
# Structural Database, then it will include bibliographic, chemical,
# crystal, experimental, refinement or atomic coordinate data resulting
# from the CCDC's data processing and validation procedures.
#
#######################################################################

data_CSD_CIF_ZICVUF
_audit_creation_date 2018-03-28
_audit_creation_method CSD-ConQuest-V1
_database_code_CSD ZICVUF
_database_code_depnum_ccdc_archive 'CCDC 1578975'
_chemical_formula_sum 'C52 H106 Ag12 I18 N16 Nd2 O16'
_chemical_formula_moiety
;
C52 H106 N16 Nd2 O16 6+,2n(Ag6 I9 3-)
;
_journal_coden_Cambridge 1747
_journal_volume 5
_journal_year 2018
_journal_page_first 1162
_journal_name_full 'Inorg.Chem.Front. '
loop_
_publ_author_name
"Dao-Hua Wang"
"Li-Ming Zhao"
"Xiao-Yan Lin"
"Yu-Kang Wang"
"Wen-Ting Zhang"
"Kai-Yue Song"
"Hao-Hong Li"
"Zhi-Rong Chen"
_chemical_name_systematic
;
catena-[(\m-4,4'-bipyridine 
N,N'-dioxide)-tetradecakis(N,N-dimethylformamide)-di-neodymium(iii) 
bis(nonakis(\m-iodo)-hexa-silver(i))]
;
_cell_volume   3017.206
_exptl_crystal_colour 'yellow'
_exptl_crystal_density_diffrn 2.795
_exptl_crystal_description 'Block'
_diffrn_ambient_temperature 293
#These two values have been output from a single CSD field.
_refine_ls_R_factor_gt 0.0705
_refine_ls_wR_factor_gt 0.0705
_symmetry_cell_setting triclinic
_symmetry_space_group_name_H-M 'P -1'
_symmetry_Int_Tables_number 2
loop_
_symmetry_equiv_pos_site_id
_symmetry_equiv_pos_as_xyz
1 x,y,z
2 -x,-y,-z
_cell_length_a 10.499(2)
_cell_length_b 14.682(3)
_cell_length_c 20.146(4)
_cell_angle_alpha 79.35(3)
_cell_angle_beta 81.36(3)
_cell_angle_gamma 88.86(3)
_cell_formula_units_Z 1
loop_
_atom_type_symbol
_atom_type_radius_bond
C 0.68
H 0.23
Ag 1.45
I 1.40
N 0.68
Nd 2.01
O 0.68
loop_
_atom_site_label
_atom_site_type_symbol
_atom_site_fract_x
_atom_site_fract_y
_atom_site_fract_z
Ag1 Ag 0.6101(4) 0.7411(2) 0.14952(17)
Ag2 Ag 0.4151(4) 0.8909(2) 0.19923(18)
Ag3 Ag 0.3578(4) 0.7669(2) 0.35702(17)
Ag4 Ag 0.5521(4) 0.9090(2) 0.04005(17)
Ag5 Ag 0.4350(4) 0.5931(3) 0.47171(19)
Ag6 Ag 0.5682(4) 0.6217(3) 0.30606(18)
I1 I 0.3521(2) 0.69122(16) 0.23297(12)
I2 I 0.6837(2) 0.92622(17) 0.15917(13)
I3 I 0.3006(3) 0.95459(18) 0.31723(13)
I4 I 0.6155(3) 0.74002(17) 0.39644(14)
I5 I 0.3018(3) 0.9833(2) 0.08106(13)
I6 I 0.7852(3) 0.61619(18) 0.20601(14)
I7 I 0.4876(3) 0.44497(18) 0.39444(13)
I8 I 0.1918(3) 0.6736(2) 0.46990(15)
I9 I 0.5625(4) 0.7244(2) 0.01799(15)
Nd1 Nd 0.94654(17) 0.24126(12) 0.24602(8)
O1 O 0.733(2) 0.2036(15) 0.3036(11)
O2 O 0.981(3) 0.190(2) 0.3636(13)
O3 O 0.939(3) 0.0723(16) 0.2678(14)
O4 O 1.172(3) 0.212(2) 0.2441(18)
O5 O 0.977(4) 0.193(2) 0.1368(13)
O6 O 1.071(3) 0.367(2) 0.161(2)
O7 O 0.787(3) 0.3345(19) 0.1831(14)
O8 O 0.934(4) 0.372(2) 0.2998(16)
N1 N 0.680(2) 0.1428(19) 0.3598(14)
N2 N 1.117(6) 0.157(6) 0.442(2)
N3 N 0.970(3) -0.0789(19) 0.2663(17)
N4 N 1.389(3) 0.197(2) 0.2231(14)
N5 N 0.965(4) 0.178(2) 0.0306(15)
N6 N 1.136(6) 0.506(3) 0.104(2)
N7 N 0.605(3) 0.409(2) 0.1629(17)
N8 N 0.963(3) 0.490(2) 0.3540(16)
C1 C 0.658(4) 0.169(3) 0.4200(18)
H1 H 0.69370 0.22390 0.42530
C2 C 0.585(4) 0.116(2) 0.4739(17)
H2 H 0.56560 0.13820 0.51470
C3 C 0.539(3) 0.032(2) 0.4693(15)
C4 C 0.572(3) 0.002(2) 0.4075(15)
H3 H 0.54810 -0.05640 0.40290
C5 C 0.640(3) 0.060(2) 0.3533(16)
H4 H 0.65960 0.04040 0.31140
C6 C 1.061(6) 0.161(6) 0.395(3)
H5 H 1.10510 0.11990 0.36960
C7 C 1.155(11) 0.254(10) 0.455(6)
H6 H 1.10300 0.30090 0.43240
H7 H 1.24410 0.26650 0.43770
H8 H 1.14020 0.25440 0.50330
C8 C 1.204(4) 0.091(3) 0.4804(18)
H9 H 1.18770 0.02890 0.47530
H10 H 1.18880 0.09510 0.52800
H11 H 1.29270 0.10720 0.46230
C9 C 0.979(4) 0.007(3) 0.238(2)
H12 H 1.01740 0.02130 0.19310
C10 C 0.936(6) -0.106(4) 0.345(3)
H13 H 0.91170 -0.05140 0.36330
H14 H 1.00900 -0.13380 0.36340
H15 H 0.86500 -0.14920 0.35560
C11 C 1.009(5) -0.151(3) 0.228(3)
H16 H 1.02770 -0.12460 0.18020
H17 H 0.94100 -0.19600 0.23510
H18 H 1.08500 -0.18070 0.24290
C12 C 1.275(4) 0.191(3) 0.207(2)
H19 H 1.26690 0.17050 0.16700
C13 C 1.399(5) 0.225(3) 0.290(2)
H20 H 1.31600 0.24090 0.31110
H21 H 1.45670 0.27700 0.28260
H22 H 1.43280 0.17380 0.31960
C14 C 1.500(4) 0.168(3) 0.177(2)
H23 H 1.47150 0.15360 0.13730
H24 H 1.53890 0.11420 0.20090
H25 H 1.56280 0.21740 0.16390
C15 C 1.029(6) 0.192(4) 0.076(3)
H26 H 1.11740 0.20140 0.06420
C16 C 1.024(8) 0.154(5) -0.035(2)
H27 H 1.11520 0.16740 -0.04230
H28 H 0.98570 0.18990 -0.07150
H29 H 1.01130 0.08930 -0.03400
C17 C 1.065(7) 0.444(4) 0.143(4)
H30 H 0.98730 0.46740 0.16040
C18 C 1.210(2) 0.4563(16) 0.0460(11)
H31 H 1.19120 0.39100 0.05770
H32 H 1.30060 0.46650 0.04230
H33 H 1.18130 0.48110 0.00320
C19 C 1.153(4) 0.609(2) 0.0941(18)
H34 H 1.10430 0.63170 0.13200
H35 H 1.12350 0.63850 0.05260
H36 H 1.24270 0.62390 0.09170
C20 C 0.688(4) 0.374(2) 0.2046(18)
H37 H 0.67130 0.37890 0.25040
C21 C 0.628(6) 0.413(5) 0.087(2)
H38 H 0.70610 0.38030 0.07490
H39 H 0.63650 0.47630 0.06420
H40 H 0.55710 0.38430 0.07370
C22 C 0.490(5) 0.456(4) 0.185(3)
H41 H 0.47920 0.45180 0.23340
H42 H 0.41720 0.42810 0.17250
H43 H 0.49660 0.52010 0.16300
C23 C 0.897(4) 0.429(2) 0.3359(17)
H44 H 0.80940 0.42690 0.35240
C24 C 1.106(7) 0.503(6) 0.333(5)
H45 H 1.13800 0.45820 0.30590
H46 H 1.14720 0.49630 0.37280
H47 H 1.12290 0.56450 0.30640
C25 C 0.901(5) 0.557(3) 0.397(2)
H48 H 0.80990 0.54410 0.40790
H49 H 0.91390 0.61920 0.37130
H50 H 0.93820 0.55100 0.43780
C26 C 0.822(7) 0.162(5) 0.051(5)
H51 H 0.79420 0.18000 0.09400
H52 H 0.80280 0.09730 0.05420
H53 H 0.77710 0.19790 0.01660
Ag4A Ag 0.4479(4) 1.0910(2) -0.04005(17)
Ag5A Ag 0.5650(4) 0.4069(3) 0.52829(19)
I5A I 0.6982(3) 1.0167(2) -0.08106(13)
I7A I 0.5124(3) 0.55503(18) 0.60556(13)
O1A O 0.267(2) -0.2036(15) 0.6964(11)
N1A N 0.320(2) -0.1428(19) 0.6402(14)
C1A C 0.342(4) -0.169(3) 0.5800(18)
H1A H 0.30630 -0.22390 0.57470
C2A C 0.415(4) -0.116(2) 0.5261(17)
H2A H 0.43440 -0.13820 0.48530
C3A C 0.461(3) -0.032(2) 0.5307(15)
C4A C 0.428(3) -0.002(2) 0.5925(15)
H3A H 0.45190 0.05640 0.59710
C5A C 0.360(3) -0.060(2) 0.6467(16)
H4A H 0.34040 -0.04040 0.68860
Nd1A Nd 0.05346(17) -0.24126(12) 0.75398(8)
O2A O 0.019(3) -0.190(2) 0.6364(13)
O3A O 0.061(3) -0.0723(16) 0.7322(14)
O4A O -0.172(3) -0.212(2) 0.7559(18)
O5A O 0.023(4) -0.193(2) 0.8632(13)
O6A O -0.071(3) -0.367(2) 0.839(2)
O7A O 0.213(3) -0.3345(19) 0.8169(14)
O8A O 0.066(4) -0.372(2) 0.7002(16)
N2A N -0.117(6) -0.157(6) 0.558(2)
N3A N 0.030(3) 0.0789(19) 0.7337(17)
N4A N -0.389(3) -0.197(2) 0.7769(14)
N5A N 0.035(4) -0.178(2) 0.9694(15)
N6A N -0.136(6) -0.506(3) 0.896(2)
N7A N 0.395(3) -0.409(2) 0.8371(17)
N8A N 0.037(3) -0.490(2) 0.6460(16)
C6A C -0.061(6) -0.161(6) 0.605(3)
H5A H -0.10510 -0.11990 0.63040
C7A C -0.155(11) -0.254(10) 0.545(6)
H6A H -0.10300 -0.30090 0.56760
H7A H -0.24410 -0.26650 0.56230
H8A H -0.14020 -0.25440 0.49670
C8A C -0.204(4) -0.091(3) 0.5196(18)
H9A H -0.18770 -0.02890 0.52470
H10A H -0.18880 -0.09510 0.47200
H11A H -0.29270 -0.10720 0.53770
C9A C 0.021(4) -0.007(3) 0.762(2)
H12A H -0.01740 -0.02130 0.80690
C10A C 0.064(6) 0.106(4) 0.655(3)
H13A H 0.08830 0.05140 0.63670
H14A H -0.00900 0.13380 0.63660
H15A H 0.13500 0.14920 0.64440
C11A C -0.009(5) 0.151(3) 0.772(3)
H16A H -0.02770 0.12460 0.81980
H17A H 0.05900 0.19600 0.76490
H18A H -0.08500 0.18070 0.75710
C12A C -0.275(4) -0.191(3) 0.793(2)
H19A H -0.26690 -0.17050 0.83300
C13A C -0.399(5) -0.225(3) 0.710(2)
H20A H -0.31600 -0.24090 0.68890
H21A H -0.45670 -0.27700 0.71740
H22A H -0.43280 -0.17380 0.68040
C14A C -0.500(4) -0.168(3) 0.823(2)
H23A H -0.47150 -0.15360 0.86270
H24A H -0.53890 -0.11420 0.79910
H25A H -0.56280 -0.21740 0.83610
C15A C -0.029(6) -0.192(4) 0.924(3)
H26A H -0.11740 -0.20140 0.93580
C16A C -0.024(8) -0.154(5) 1.035(2)
H27A H -0.11520 -0.16740 1.04230
H28A H 0.01430 -0.18990 1.07150
H29A H -0.01130 -0.08930 1.03400
C17A C -0.065(7) -0.444(4) 0.857(4)
H30A H 0.01270 -0.46740 0.83960
C18A C -0.210(2) -0.4563(16) 0.9540(11)
H31A H -0.19120 -0.39100 0.94230
H32A H -0.30060 -0.46650 0.95770
H33A H -0.18130 -0.48110 0.99680
C19A C -0.153(4) -0.609(2) 0.9059(18)
H34A H -0.10430 -0.63170 0.86800
H35A H -0.12350 -0.63850 0.94740
H36A H -0.24270 -0.62390 0.90830
C20A C 0.312(4) -0.374(2) 0.7954(18)
H37A H 0.32870 -0.37890 0.74960
C21A C 0.372(6) -0.413(5) 0.913(2)
H38A H 0.29390 -0.38030 0.92510
H39A H 0.36350 -0.47630 0.93580
H40A H 0.44290 -0.38430 0.92630
C22A C 0.510(5) -0.456(4) 0.815(3)
H41A H 0.52080 -0.45180 0.76660
H42A H 0.58280 -0.42810 0.82750
H43A H 0.50340 -0.52010 0.83700
C23A C 0.103(4) -0.429(2) 0.6641(17)
H44A H 0.19060 -0.42690 0.64760
C24A C -0.106(7) -0.503(6) 0.667(5)
H45A H -0.13800 -0.45820 0.69410
H46A H -0.14720 -0.49630 0.62720
H47A H -0.12290 -0.56450 0.69360
C25A C 0.099(5) -0.557(3) 0.603(2)
H48A H 0.19010 -0.54410 0.59210
H49A H 0.08610 -0.61920 0.62870
H50A H 0.06180 -0.55100 0.56220
C26A C 0.178(7) -0.162(5) 0.949(5)
H51A H 0.20580 -0.18000 0.90600
H52A H 0.19720 -0.09730 0.94580
H53A H 0.22290 -0.19790 0.98340
#END
