
#######################################################################
#
#                 Cambridge Crystallographic Data Centre
#                                CCDC
#
#######################################################################
#
# If this CIF has been generated from an entry in the Cambridge
# Structural Database, then it will include bibliographic, chemical,
# crystal, experimental, refinement or atomic coordinate data resulting
# from the CCDC's data processing and validation procedures.
#
#######################################################################

data_CSD_CIF_ZICWUG
_audit_creation_date 2018-03-28
_audit_creation_method CSD-ConQuest-V1
_database_code_CSD ZICWUG
_database_code_depnum_ccdc_archive 'CCDC 1578981'
_chemical_formula_sum 'C28 H50 Bi2 Er1 I9 N8 O8'
_chemical_formula_moiety
;
(C28 H50 Er1 N8 O8 3+)n,Bi2 I9 3-
;
_journal_coden_Cambridge 1747
_journal_volume 5
_journal_year 2018
_journal_page_first 1162
_journal_name_full 'Inorg.Chem.Front. '
loop_
_publ_author_name
"Dao-Hua Wang"
"Li-Ming Zhao"
"Xiao-Yan Lin"
"Yu-Kang Wang"
"Wen-Ting Zhang"
"Kai-Yue Song"
"Hao-Hong Li"
"Zhi-Rong Chen"
_chemical_name_systematic
;
catena-[(\m-4,4'-bipyridine 
N,N'-dioxide)-hexakis(N,N-dimethylformamide)-erbium(iii) 
tris(\m-iodo)-hexa-iodo-di-bismuth(iii)]
;
_cell_volume   5685.490
_exptl_crystal_colour 'red'
_exptl_crystal_density_diffrn 2.75
_exptl_crystal_description 'block'
_diffrn_ambient_temperature 296
#These two values have been output from a single CSD field.
_refine_ls_R_factor_gt 0.0497
_refine_ls_wR_factor_gt 0.0497
_symmetry_cell_setting monoclinic
_symmetry_space_group_name_H-M 'P 21/n'
_symmetry_Int_Tables_number 14
loop_
_symmetry_equiv_pos_site_id
_symmetry_equiv_pos_as_xyz
1 x,y,z
2 1/2-x,1/2+y,1/2-z
3 -x,-y,-z
4 -1/2+x,-1/2-y,-1/2+z
_cell_length_a 13.2935(14)
_cell_length_b 31.479(3)
_cell_length_c 13.6059(14)
_cell_angle_alpha 90
_cell_angle_beta 93.060(3)
_cell_angle_gamma 90
_cell_formula_units_Z 4
loop_
_atom_type_symbol
_atom_type_radius_bond
C 0.68
H 0.23
Bi 1.48
Er 1.89
I 1.40
N 0.68
O 0.68
loop_
_atom_site_label
_atom_site_type_symbol
_atom_site_fract_x
_atom_site_fract_y
_atom_site_fract_z
Bi1 Bi 0.28469(4) 0.149784(15) 0.48782(3)
Bi2 Bi 0.00203(4) 0.126284(16) 0.59006(3)
I1 I 0.46108(8) 0.09139(3) 0.47440(7)
I2 I 0.12334(7) 0.07976(3) 0.41148(6)
I3 I -0.08283(8) 0.04714(3) 0.66622(7)
I4 I 0.22487(7) 0.11017(4) 0.69717(7)
I5 I 0.32036(8) 0.17950(3) 0.28706(7)
I6 I 0.09652(8) 0.20993(3) 0.49461(8)
I7 I -0.18304(8) 0.14154(4) 0.46851(8)
I8 I -0.04713(9) 0.17694(4) 0.76087(8)
I9 I 0.40006(9) 0.21894(4) 0.58683(10)
Er1 Er -0.32689(4) 0.09797(2) 0.05836(4)
O1 O -0.4687(6) 0.0570(3) 0.1231(6)
O2 O -0.4810(8) 0.1381(3) 0.0067(7)
O3 O -0.3633(8) 0.1436(4) 0.1922(8)
O4 O -0.1691(8) 0.1351(4) 0.1066(8)
O5 O -0.2633(7) 0.0543(3) 0.1967(7)
O6 O -1.1913(6) 0.0548(3) -0.0094(6)
N1 N -0.5667(7) 0.0589(3) 0.1017(7)
N2 N -0.5977(10) 0.1891(4) -0.0167(9)
N3 N -0.3664(9) 0.1989(4) 0.2965(8)
N4 N -0.0159(12) 0.1654(4) 0.1205(15)
N5 N -0.2543(8) 0.0278(3) 0.3511(7)
N6 N -1.0904(7) 0.0560(3) 0.0089(7)
C1 C -0.6065(10) 0.0466(5) 0.0142(9)
H1 H -0.56350 0.03790 -0.03370
C2 C -0.7072(9) 0.0461(5) -0.0076(9)
H2 H -0.73220 0.03690 -0.06910
C3 C -0.7738(8) 0.0597(4) 0.0628(8)
C4 C -0.8836(8) 0.0586(4) 0.0423(8)
C5 C -0.9298(10) 0.0690(5) -0.0474(9)
H3 H -0.89020 0.07620 -0.09910
C6 C -1.0332(9) 0.0690(5) -0.0627(9)
H4 H -1.06280 0.07810 -0.12250
C7 C -1.0491(10) 0.0453(5) 0.0975(9)
H5 H -1.09030 0.03660 0.14690
C8 C -0.9473(9) 0.0469(5) 0.1158(9)
H6 H -0.92000 0.04010 0.17810
C9 C -0.7311(9) 0.0726(4) 0.1506(9)
H7 H -0.77260 0.08180 0.19920
C10 C -0.6274(9) 0.0727(4) 0.1700(9)
H8 H -0.60030 0.08230 0.23040
C11 C -0.5258(12) 0.1691(5) 0.0338(11)
H9 H -0.50730 0.17970 0.09610
C12 C -0.626(4) 0.1760(12) -0.108(3)
H10 H -0.56800 0.16460 -0.13910
H11 H -0.65210 0.19960 -0.14620
H12 H -0.67620 0.15440 -0.10510
C13 C -0.6501(14) 0.2257(6) 0.0195(14)
H13 H -0.71920 0.21850 0.02810
H14 H -0.64700 0.24850 -0.02710
H15 H -0.61880 0.23450 0.08140
C14 C -0.3873(10) 0.1597(5) 0.2683(11)
H16 H -0.42360 0.14300 0.31030
C15 C -0.4001(14) 0.2164(6) 0.3872(11)
H17 H -0.45450 0.19950 0.40960
H18 H -0.42290 0.24500 0.37610
H19 H -0.34540 0.21630 0.43620
C16 C -0.307(2) 0.2253(6) 0.2358(16)
H20 H -0.23950 0.21410 0.23530
H21 H -0.30440 0.25360 0.26170
H22 H -0.33610 0.22570 0.16980
C17 C -0.1023(17) 0.1527(7) 0.0721(14)
H23 H -0.10900 0.15850 0.00500
C18 C 0.0653(18) 0.1820(8) 0.0648(17)
H24 H 0.11960 0.16190 0.06600
H25 H 0.08880 0.20830 0.09360
H26 H 0.04120 0.18690 -0.00200
C19 C -0.007(2) 0.1670(11) 0.223(2)
H27 H -0.00300 0.19610 0.24360
H28 H 0.05240 0.15210 0.24580
H29 H -0.06530 0.15400 0.24900
C20 C -0.2998(10) 0.0466(4) 0.2784(9)
H30 H -0.36560 0.05550 0.28640
C21 C -0.1446(12) 0.0169(8) 0.3484(13)
H31 H -0.13380 0.00010 0.29100
H32 H -0.12400 0.00110 0.40630
H33 H -0.10570 0.04260 0.34620
C22 C -0.3005(11) 0.0188(6) 0.4428(10)
H34 H -0.36990 0.02740 0.43780
H35 H -0.26580 0.03410 0.49530
H36 H -0.29660 -0.01110 0.45600
O7 O -0.2893(10) 0.1412(5) -0.0789(10)
N7 N -0.3273(10) 0.1776(4) -0.2185(9)
C23 C -0.2972(13) 0.1746(7) -0.1283(13)
H37 H -0.27940 0.19980 -0.09600
C24 C -0.353(2) 0.1394(7) -0.2765(17)
H38 H -0.32280 0.11500 -0.24500
H39 H -0.32930 0.14240 -0.34140
H40 H -0.42530 0.13590 -0.28090
C25 C -0.3244(18) 0.2172(7) -0.2728(17)
H41 H -0.35240 0.23960 -0.23480
H42 H -0.36300 0.21430 -0.33410
H43 H -0.25590 0.22400 -0.28550
O8 O -0.3943(6) 0.0545(3) -0.0781(6)
N8 N -0.4183(8) 0.0349(3) -0.2369(6)
C26 C -0.3629(10) 0.0407(4) -0.1580(8)
H44 H -0.29470 0.03420 -0.15980
C27 C -0.5231(10) 0.0456(6) -0.2436(10)
H45 H -0.56260 0.02010 -0.24530
H46 H -0.53790 0.06170 -0.30250
H47 H -0.53900 0.06230 -0.18730
C28 C -0.3764(14) 0.0194(6) -0.3268(11)
H48 H -0.30440 0.01750 -0.31740
H49 H -0.39340 0.03870 -0.37970
H50 H -0.40360 -0.00810 -0.34260
Er1* Er -1.32689(4) 0.09797(2) 0.05836(4)
O6* O -0.1913(6) 0.0548(3) -0.0094(6)
#END
