
#######################################################################
#
#                 Cambridge Crystallographic Data Centre
#                                CCDC
#
#######################################################################
#
# If this CIF has been generated from an entry in the Cambridge
# Structural Database, then it will include bibliographic, chemical,
# crystal, experimental, refinement or atomic coordinate data resulting
# from the CCDC's data processing and validation procedures.
#
#######################################################################

data_CSD_CIF_ZIDBEV
_audit_creation_date 2013-08-14
_audit_creation_method CSD-ConQuest-V1
_database_code_CSD ZIDBEV
_database_code_depnum_ccdc_archive 'CCDC 894825'
_chemical_formula_sum 'C16 H25 Cu4 N12 O41 P1 W12'
_chemical_formula_moiety
;
(C16 H25 Cu4 N12 O1 3+)n,n(O40 P1 W12 3-)
;
_journal_coden_Cambridge 1500
_journal_volume 3
_journal_year 2013
_journal_page_first 17188
_journal_name_full 'RSC Advances '
loop_
_publ_author_name
"AiXiang Tian"
"XiaoLing Lin"
"XiaoJing Liu"
"Jun Ying"
"XiuLi Wang"
_chemical_name_systematic
;
catena-[bis(\m~4~-1,4-bis(1H-1,2,4-triazol-1-yl)butane)-(\m~2~-hydroxo)-tetra-
copper(i) 
(\m~12~-phosphato)-tetracosakis(\m~2~-oxo)-dodeca-oxo-dodeca-tungsten]
;
_cell_volume   2693.849
_exptl_crystal_colour 'orange'
_exptl_crystal_density_diffrn 4.354
_exptl_crystal_description 'block'
_diffrn_ambient_temperature 293
_refine_special_details
;
The Keggin anion is disordered by symmetry.

;
#These two values have been output from a single CSD field.
_refine_ls_R_factor_gt 0.0378
_refine_ls_wR_factor_gt 0.0378
_symmetry_cell_setting monoclinic
_symmetry_space_group_name_H-M 'C 2/m'
_symmetry_Int_Tables_number 12
loop_
_symmetry_equiv_pos_site_id
_symmetry_equiv_pos_as_xyz
1 x,y,z
2 -x,y,-z
3 1/2+x,1/2+y,z
4 1/2-x,1/2+y,-z
5 -x,-y,-z
6 x,-y,z
7 -1/2-x,-1/2-y,-z
8 -1/2+x,-1/2-y,z
_cell_length_a 12.774(5)
_cell_length_b 19.299(5)
_cell_length_c 11.056(5)
_cell_angle_alpha 90
_cell_angle_beta 98.752(5)
_cell_angle_gamma 90
_cell_formula_units_Z 2
loop_
_atom_type_symbol
_atom_type_radius_bond
C 0.68
H 0.23
Cu 1.32
N 0.68
O 0.68
P 1.05
W 1.62
loop_
_atom_site_label
_atom_site_type_symbol
_atom_site_fract_x
_atom_site_fract_y
_atom_site_fract_z
O1 O 0.4336(11) 0.4515(7) -0.1008(13)
O2 O 0.4031(9) 0.3355(7) -0.1436(12)
O3 O 0.4124(10) 0.4311(7) -0.3112(13)
O4 O 0.2570(9) 0.4320(7) -0.1817(13)
O5 O 0.2279(12) 0.50000 -0.4056(14)
O6 O 0.6105(10) 0.3372(6) -0.0899(10)
O7 O 0.6216(10) 0.4310(6) -0.2570(11)
O8 O 0.8103(13) 0.50000 -0.2589(17)
O9 O 0.5188(10) 0.3066(5) -0.3281(10)
O10 O 0.4212(10) 0.5470(7) 0.0656(13)
O11 O 0.2435(10) 0.4331(6) 0.0560(11)
O12 O 0.2057(8) 0.3102(5) -0.0737(12)
P1 P 0.50000 0.50000 0.00000
W1 W 0.30107(4) 0.37075(2) -0.05061(5)
W2 W 0.51319(4) 0.36863(3) -0.22421(5)
W3 W 0.31572(6) 0.50000 -0.27614(7)
W4 W 0.71148(6) 0.50000 -0.17713(7)
C1 C 0.0000(12) 0.3630(9) 0.2520(13)
H1 H -0.07050 0.37680 0.23510
C2 C 0.1466(11) 0.3212(7) 0.2290(12)
H2 H 0.20250 0.30070 0.19740
C3 C 0.2407(13) 0.3457(8) 0.4442(13)
H3 H 0.23850 0.38820 0.49060
H4 H 0.30660 0.34500 0.41070
C4 C 0.2363(12) 0.2834(7) 0.5286(12)
H5 H 0.28510 0.29080 0.60360
H6 H 0.16550 0.27970 0.54980
N1 N 0.0510(9) 0.3324(7) 0.1676(10)
N2 N 0.0569(11) 0.3715(7) 0.3579(12)
N3 N 0.1504(10) 0.3439(6) 0.3435(10)
Cu1 Cu 0.00000 0.32289(16) 0.00000
Cu2 Cu 0.00000 0.4101(4) 0.50000
O13 O 0.00000 0.50000 0.50000
O1A O 0.5664(11) 0.4515(7) 0.1008(13)
O10A O 0.5788(10) 0.5470(7) -0.0656(13)
O1D O 0.5664(11) 0.5485(7) 0.1008(13)
O10D O 0.5788(10) 0.4530(7) -0.0656(13)
O1E O 0.4336(11) 0.5485(7) -0.1008(13)
O10E O 0.4212(10) 0.4530(7) 0.0656(13)
O2A O 0.5969(9) 0.3355(7) 0.1436(12)
O3A O 0.5876(10) 0.4311(7) 0.3112(13)
O4A O 0.7430(9) 0.4320(7) 0.1817(13)
O5A O 0.7721(12) 0.50000 0.4056(14)
O6A O 0.3895(10) 0.3372(6) 0.0899(10)
O7A O 0.3784(10) 0.4310(6) 0.2570(11)
O8A O 0.1897(13) 0.50000 0.2589(17)
O9A O 0.4812(10) 0.3066(5) 0.3281(10)
O11A O 0.7565(10) 0.4331(6) -0.0560(11)
O12A O 0.7943(8) 0.3102(5) 0.0737(12)
W1A W 0.69893(4) 0.37075(2) 0.05061(5)
W2A W 0.48681(4) 0.36863(3) 0.22421(5)
W3A W 0.68428(6) 0.50000 0.27614(7)
W4A W 0.28852(6) 0.50000 0.17713(7)
O2D O 0.5969(9) 0.6645(7) 0.1436(12)
O3D O 0.5876(10) 0.5689(7) 0.3112(13)
O4D O 0.7430(9) 0.5680(7) 0.1817(13)
O6D O 0.3895(10) 0.6628(6) 0.0899(10)
O7D O 0.3784(10) 0.5690(6) 0.2570(11)
O9D O 0.4812(10) 0.6934(5) 0.3281(10)
O11D O 0.7565(10) 0.5669(6) -0.0560(11)
O12D O 0.7943(8) 0.6898(5) 0.0737(12)
W1D W 0.69893(4) 0.62925(2) 0.05061(5)
W2D W 0.48681(4) 0.63137(3) 0.22421(5)
O2E O 0.4031(9) 0.6645(7) -0.1436(12)
O3E O 0.4124(10) 0.5689(7) -0.3112(13)
O4E O 0.2570(9) 0.5680(7) -0.1817(13)
O6E O 0.6105(10) 0.6628(6) -0.0899(10)
O7E O 0.6216(10) 0.5690(6) -0.2570(11)
O9E O 0.5188(10) 0.6934(5) -0.3281(10)
O11E O 0.2435(10) 0.5669(6) 0.0560(11)
O12E O 0.2057(8) 0.6898(5) -0.0737(12)
W1E W 0.30107(4) 0.62925(2) -0.05061(5)
W2E W 0.51319(4) 0.63137(3) -0.22421(5)
C1F C 0.5000(12) 0.1370(9) 0.7480(13)
H1F H 0.57050 0.12320 0.76490
C2F C 0.3534(11) 0.1788(7) 0.7710(12)
H2F H 0.29750 0.19930 0.80260
C3F C 0.2593(13) 0.1543(8) 0.5558(13)
H3F H 0.26150 0.11180 0.50940
H4F H 0.19340 0.15500 0.58930
C4F C 0.2637(12) 0.2166(7) 0.4714(12)
H5F H 0.21490 0.20920 0.39640
H6F H 0.33450 0.22030 0.45020
N1F N 0.4490(9) 0.1676(7) 0.8324(10)
N2F N 0.4431(11) 0.1285(7) 0.6421(12)
N3F N 0.3496(10) 0.1561(6) 0.6565(10)
C1A C 0.0000(12) 0.3630(9) -0.2520(13)
H1A H 0.07050 0.37680 -0.23510
C2A C -0.1466(11) 0.3212(7) -0.2290(12)
H2A H -0.20250 0.30070 -0.19740
C3A C -0.2407(13) 0.3457(8) -0.4442(13)
H3A H -0.23850 0.38820 -0.49060
H4A H -0.30660 0.34500 -0.41070
C4A C -0.2363(12) 0.2834(7) -0.5286(12)
H5A H -0.28510 0.29080 -0.60360
H6A H -0.16550 0.27970 -0.54980
N1A N -0.0510(9) 0.3324(7) -0.1676(10)
N2A N -0.0569(11) 0.3715(7) -0.3579(12)
N3A N -0.1504(10) 0.3439(6) -0.3435(10)
C1G C -0.5000(12) 0.1370(9) -0.7480(13)
H1G H -0.57050 0.12320 -0.76490
C2G C -0.3534(11) 0.1788(7) -0.7710(12)
H2G H -0.29750 0.19930 -0.80260
C3G C -0.2593(13) 0.1543(8) -0.5558(13)
H3G H -0.26150 0.11180 -0.50940
H4G H -0.19340 0.15500 -0.58930
C4G C -0.2637(12) 0.2166(7) -0.4714(12)
H5G H -0.21490 0.20920 -0.39640
H6G H -0.33450 0.22030 -0.45020
N1G N -0.4490(9) 0.1676(7) -0.8324(10)
N2G N -0.4431(11) 0.1285(7) -0.6421(12)
N3G N -0.3496(10) 0.1561(6) -0.6565(10)
Cu2D Cu 0.00000 0.5899(4) 0.50000
Cu1F Cu 0.50000 0.17711(16) 1.00000
N1G* N 0.5510(9) 0.1676(7) 1.1676(10)
N2A* N -0.0569(11) 0.3715(7) 0.6421(12)
N2D N -0.0569(11) 0.6285(7) 0.6421(12)
N2E N 0.0569(11) 0.6285(7) 0.3579(12)
Cu1F* Cu -0.50000 0.17711(16) -1.00000
Cu2* Cu 0.00000 0.4101(4) -0.50000
Cu2F Cu -0.50000 0.0899(4) -0.50000
Cu2F* Cu 0.50000 0.0899(4) 0.50000
#END
