
#######################################################################
#
#                 Cambridge Crystallographic Data Centre
#                                CCDC
#
#######################################################################
#
# If this CIF has been generated from an entry in the Cambridge
# Structural Database, then it will include bibliographic, chemical,
# crystal, experimental, refinement or atomic coordinate data resulting
# from the CCDC's data processing and validation procedures.
#
#######################################################################

data_CSD_CIF_ZIDROV
_audit_creation_date 2013-08-14
_audit_creation_method CSD-ConQuest-V1
_database_code_CSD ZIDROV
_database_code_depnum_ccdc_archive 'CCDC 921871'
_chemical_formula_sum 'C24 H140 Fe8 Ge4 N24 O150 W36'
_chemical_formula_moiety
;
(C4 H16 Fe4 Ge2 N4 O68 W18 8-)n,n(C2 H8 Fe4 Ge2 N2 O68 W18 8-),8n(C2 H10 N2 
2+),n(C2 H8 N2),14n(H2 O1)
;
_journal_coden_Cambridge 1295
_journal_volume 33
_journal_year 2013
_journal_page_first 99
_journal_name_full 'Inorg.Chem.Commun. '
loop_
_publ_author_name
"Shuanbao Tian"
"Yanzhou Li"
"Junwei Zhao"
"Pengtao Ma"
"Lijuan Chen"
_chemical_name_systematic
;
catena-[octakis(ethane-1,2-diaminium) 
octakis(\m~4~-oxo)-tetrakis(\m~3~-oxo)-octatriacontakis(\m~2~-oxo)-bis(ethane-
1,2-diamine)-octadecaoxo-tetra-iron-di-germanium-octadeca-tungsten 
octakis(\m~4~-oxo)-tetrakis(\m~3~-oxo)-(\m~2~-ethane-1,2-diamine)-octatriacont
akis(\m~2~-oxo)-octadecaoxo-tetra-iron-di-germanium-octadeca-tungsten 
ethane-1,2-diamine solvate tetradecahydrate]
;
_cell_volume  16022.238
_exptl_crystal_colour 'black'
_exptl_crystal_density_diffrn 4.362
_exptl_crystal_description 'lamellar'
_diffrn_ambient_temperature 296
#These two values have been output from a single CSD field.
_refine_ls_R_factor_gt 0.0414
_refine_ls_wR_factor_gt 0.0414
_symmetry_cell_setting monoclinic
_symmetry_space_group_name_H-M 'C 2/c'
_symmetry_Int_Tables_number 15
loop_
_symmetry_equiv_pos_site_id
_symmetry_equiv_pos_as_xyz
1 x,y,z
2 -x,y,1/2-z
3 1/2+x,1/2+y,z
4 1/2-x,1/2+y,1/2-z
5 -x,-y,-z
6 x,-y,-1/2+z
7 -1/2-x,-1/2-y,-z
8 -1/2+x,-1/2-y,-1/2+z
_cell_length_a 45.118(16)
_cell_length_b 16.866(6)
_cell_length_c 24.124(9)
_cell_angle_alpha 90
_cell_angle_beta 119.215(7)
_cell_angle_gamma 90
_cell_formula_units_Z 4
loop_
_atom_type_symbol
_atom_type_radius_bond
C 0.68
H 0.23
Fe 1.52
Ge 1.17
N 0.68
O 0.68
W 1.62
loop_
_atom_site_label
_atom_site_type_symbol
_atom_site_fract_x
_atom_site_fract_y
_atom_site_fract_z
W1 W 0.210273(18) -0.01808(4) 1.11791(3)
W2 W 0.187620(17) -0.11024(4) 0.96069(3)
W3 W 0.279370(17) -0.09281(4) 1.08856(3)
W4 W 0.317137(16) 0.08881(4) 1.12753(3)
W5 W 0.247718(17) 0.16308(4) 1.15711(3)
W6 W 0.166583(17) 0.14654(4) 1.04065(3)
W7 W 0.144920(17) 0.05751(4) 0.88422(3)
W8 W 0.207218(17) -0.00723(4) 0.85990(3)
W9 W 0.297512(17) 0.01052(4) 0.98664(3)
Ge1 Ge 0.23029(4) 0.08535(9) 1.00621(8)
Fe1 Fe 0.21988(6) 0.28142(13) 1.01318(11)
Fe2 Fe 0.20116(6) 0.20615(14) 0.87596(11)
O1 O 0.2039(3) -0.0870(7) 1.1634(6)
O2 O 0.2527(3) -0.0545(7) 1.1260(5)
O3 O 0.1714(3) 0.0479(6) 1.0891(5)
O4 O 0.2176(3) 0.0908(6) 1.0638(5)
O5 O 0.2375(3) 0.0587(7) 1.1797(5)
O6 O 0.1904(3) -0.0691(6) 1.0372(5)
O7 O 0.1751(3) -0.2068(7) 0.9614(6)
O8 O 0.1462(3) -0.0577(7) 0.9117(6)
O9 O 0.1979(3) -0.1119(6) 0.8932(5)
O10 O 0.2010(2) 0.0226(6) 0.9466(5)
O11 O 0.2369(3) -0.1250(6) 1.0174(5)
O12 O 0.2940(3) -0.1822(7) 1.1274(6)
O13 O 0.2987(3) -0.0911(6) 1.0338(5)
O14 O 0.2696(3) 0.0357(6) 1.0421(5)
O15 O 0.3150(3) -0.0262(7) 1.1474(6)
O16 O 0.3566(2) 0.1081(7) 1.1916(5)
O17 O 0.3054(3) 0.1837(6) 1.0830(5)
O18 O 0.3316(3) 0.0464(6) 1.0694(5)
O19 O 0.2873(3) 0.1116(7) 1.1621(6)
O20 O 0.2661(3) 0.2071(7) 1.2319(5)
O21 O 0.2517(3) 0.2407(6) 1.1076(5)
O22 O 0.1999(3) 0.1877(6) 1.1256(5)
O23 O 0.1292(3) 0.1796(7) 1.0380(6)
O24 O 0.1778(3) 0.2270(7) 1.0053(5)
O25 O 0.1482(3) 0.0839(6) 0.9657(5)
O26 O 0.1012(3) 0.0615(7) 0.8349(5)
O27 O 0.1593(3) 0.1535(6) 0.8770(5)
O28 O 0.1582(3) 0.0076(7) 0.8276(5)
O29 O 0.2066(3) -0.0474(7) 0.7920(5)
O30 O 0.2135(3) 0.0948(7) 0.8527(5)
O31 O 0.2537(3) -0.0274(6) 0.9218(5)
O32 O 0.3229(3) -0.0249(7) 0.9565(6)
O33 O 0.2887(3) 0.1105(7) 0.9586(5)
O34 O 0.2330(3) 0.1778(6) 0.9776(5)
N1 N 0.1691(4) 0.2396(9) 0.7775(6)
H1 H 0.14780 0.24580 0.77130
H2 H 0.17610 0.28750 0.77200
N2 N 0.1348(7) 0.0839(19) 0.6535(15)
H3 H 0.14690 0.09490 0.63570
H4 H 0.11970 0.04720 0.63790
C1 C 0.1671(6) 0.1863(15) 0.7264(12)
H5 H 0.16240 0.21730 0.68920
H6 H 0.18860 0.15950 0.74090
C2 C 0.1401(6) 0.1278(15) 0.7102(13)
H7 H 0.11920 0.15430 0.70190
H8 H 0.14640 0.09140 0.74540
W10 W 0.033195(19) 0.87460(4) 1.07064(4)
W11 W 0.084786(18) 0.78001(4) 1.00512(4)
W12 W -0.00611(2) 0.83152(5) 0.89631(4)
W13 W -0.067095(17) 0.72093(5) 0.90388(3)
W14 W -0.019876(18) 0.63940(4) 0.84642(3)
W15 W 0.071492(17) 0.58809(4) 0.95769(3)
W16 W 0.105160(17) 0.62897(4) 1.11277(3)
W17 W 0.053305(18) 0.72122(4) 1.17616(3)
W18 W -0.028043(17) 0.76517(4) 1.07808(3)
Ge2 Ge 0.01754(4) 0.66871(10) 1.01283(8)
Fe3 Fe -0.00554(6) 0.55661(15) 1.10386(11)
Fe4 Fe 0.04002(6) 0.47879(14) 1.04833(11)
O35 O 0.0444(3) 0.9737(7) 1.0836(7)
O36 O 0.0186(2) 0.7374(6) 1.0682(5)
O37 O 0.0066(3) 0.8690(7) 0.9795(5)
O38 O 0.0578(3) 0.8349(7) 1.1526(5)
O39 O -0.0077(3) 0.8730(7) 1.0745(5)
O40 O 0.0687(3) 0.8350(6) 1.0554(5)
O41 O 0.1111(3) 0.8496(8) 1.0003(7)
O42 O 0.0575(2) 0.6674(6) 1.0192(5)
O43 O 0.1178(3) 0.7252(6) 1.0817(5)
O44 O 0.0888(3) 0.6962(7) 0.9556(6)
O45 O 0.0426(3) 0.8064(7) 0.9332(6)
O46 O -0.0082(4) 0.9154(8) 0.8531(7)
O47 O -0.0123(3) 0.7534(7) 0.8348(5)
O48 O -0.0105(3) 0.7060(6) 0.9363(5)
O49 O -0.0520(3) 0.8198(7) 0.8774(6)
O50 O -0.1098(3) 0.7433(8) 0.8655(6)
O51 O -0.0514(3) 0.7692(7) 0.9854(5)
O52 O -0.0656(3) 0.6225(7) 0.9348(6)
O53 O -0.0632(3) 0.6748(7) 0.8326(5)
O54 O -0.0314(3) 0.6075(8) 0.7695(5)
O55 O -0.0241(2) 0.5481(7) 0.8844(5)
O56 O 0.0286(3) 0.6259(7) 0.8885(5)
O57 O 0.0869(2) 0.5394(7) 0.9139(5)
O58 O 0.0476(3) 0.5089(7) 0.9723(5)
O59 O 0.1088(3) 0.5785(7) 1.0409(5)
O60 O 0.1448(3) 0.6061(7) 1.1723(6)
O61 O 0.0796(3) 0.5452(7) 1.1100(5)
O62 O 0.0885(3) 0.6956(7) 1.1548(5)
O63 O 0.0773(3) 0.7320(8) 1.2586(5)
O64 O 0.0376(3) 0.6218(7) 1.1639(5)
O65 O 0.0099(3) 0.7629(7) 1.1646(5)
O66 O -0.0596(3) 0.8033(7) 1.0915(6)
O67 O -0.0345(2) 0.6615(7) 1.0772(5)
O68 O 0.0050(2) 0.5739(6) 1.0239(5)
N3 N -0.0202(3) 0.5370(8) 1.1768(6)
H9 H -0.04220 0.52210 1.15660
H10 H -0.00820 0.49510 1.20010
C3 C -0.0169(5) 0.5990(11) 1.2211(9)
H11 H -0.03420 0.59210 1.23330
H12 H -0.02060 0.65000 1.20020
O69 O 0.0929(3) 0.4967(7) 1.2328(6)
O70 O 0.3290(5) 0.6557(12) 1.2982(10)
O71 O 0.1439(5) 0.4305(13) 1.1121(10)
O72 O 0.1174(4) 0.0692(10) 1.1532(8)
O73 O 0.0437(12) 0.761(3) 0.806(2)
O74 O 0.0590(12) 0.736(3) 0.827(2)
O75 O 0.1183(7) 0.5940(18) 0.8445(14)
O76 O 0.0851(12) 0.060(3) 1.222(2)
O77 O 0.1431(10) 0.406(2) 1.232(2)
O78 O 0.3524(10) 0.712(2) 1.2153(19)
N4 N 0.0330(5) 0.9349(10) 1.2244(9)
H13 H 0.01920 0.94410 1.18490
H14 H 0.05450 0.93620 1.23860
C4 C 0.0198(5) 0.9172(14) 1.2667(10)
H15 H 0.02850 0.95610 1.30070
H16 H 0.02810 0.86560 1.28570
N5 N -0.1079(5) 0.6595(10) 0.9956(9)
H17 H -0.11990 0.64170 0.95590
H18 H -0.08640 0.64400 1.01180
H19 H -0.10880 0.71220 0.99560
N6 N -0.1121(4) 0.7336(9) 1.1103(7)
H20 H -0.10090 0.74550 1.15150
H21 H -0.13430 0.73720 1.09610
H22 H -0.10620 0.76740 1.08900
C5 C -0.1215(5) 0.6288(14) 1.0324(11)
H23 H -0.12110 0.57140 1.03050
H24 H -0.14510 0.64510 1.01340
C6 C -0.1037(5) 0.6535(12) 1.1010(11)
H25 H -0.10990 0.61710 1.12490
H26 H -0.07940 0.64960 1.11760
N7 N 0.1691(4) 0.6880(9) 1.0501(9)
H27 H 0.14920 0.70920 1.04130
H28 H 0.16950 0.63710 1.06010
H29 H 0.17210 0.69210 1.01630
N8 N 0.2392(3) 0.7020(8) 1.0660(6)
H30 H 0.25980 0.68210 1.07820
H31 H 0.23860 0.75240 1.05440
H32 H 0.22380 0.67420 1.03330
C7 C 0.1960(5) 0.7295(14) 1.1028(11)
H33 H 0.19270 0.72470 1.13950
H34 H 0.19480 0.78540 1.09230
C8 C 0.2317(5) 0.6977(12) 1.1203(9)
H35 H 0.24870 0.72810 1.15570
H36 H 0.23350 0.64290 1.13390
N9 N -0.0707(4) 0.9292(9) 0.9739(9)
H37 H -0.07370 0.94370 0.93610
H38 H -0.08400 0.88780 0.96930
H39 H -0.04910 0.91610 0.99910
N10 N -0.0759(5) 1.0547(10) 1.0992(8)
H40 H -0.07330 1.03850 1.13640
H41 H -0.09540 1.08090 1.07810
H42 H -0.05870 1.08650 1.10580
C9 C -0.0800(6) 0.9970(14) 1.0030(11)
H43 H -0.06640 1.04250 1.00490
H44 H -0.10360 1.01060 0.97460
C10 C -0.0761(6) 0.9852(11) 1.0616(10)
H45 H -0.05500 0.95690 1.08640
H46 H -0.09430 0.95030 1.05720
N11 N 0.1973(4) 0.5127(11) 0.7387(8)
H47 H 0.19030 0.46270 0.73500
H48 H 0.17940 0.54500 0.72390
H49 H 0.21130 0.52370 0.77940
N12 N 0.1986(4) 0.6463(11) 0.6527(8)
H50 H 0.20410 0.69350 0.64370
H51 H 0.18730 0.65290 0.67400
H52 H 0.18560 0.62030 0.61670
C11 C 0.2156(6) 0.5245(15) 0.7010(11)
H53 H 0.23410 0.48640 0.71820
H54 H 0.19990 0.50650 0.65840
C12 C 0.2306(4) 0.5993(12) 0.6927(10)
H55 H 0.24340 0.59020 0.67070
H56 H 0.24500 0.62510 0.73310
W1F W 0.289727(18) 0.51808(4) 0.88209(3)
W2F W 0.312380(17) 0.61024(4) 1.03931(3)
W3F W 0.220630(17) 0.59281(4) 0.91144(3)
W4F W 0.182863(16) 0.41119(4) 0.87247(3)
W5F W 0.252282(17) 0.33692(4) 0.84289(3)
W6F W 0.333417(17) 0.35346(4) 0.95935(3)
W7F W 0.355080(17) 0.44249(4) 1.11578(3)
W8F W 0.292782(17) 0.50723(4) 1.14010(3)
W9F W 0.202488(17) 0.48948(4) 1.01336(3)
Ge1F Ge 0.26971(4) 0.41465(9) 0.99379(8)
Fe1F Fe 0.28012(6) 0.21858(13) 0.98682(11)
Fe2F Fe 0.29884(6) 0.29385(14) 1.12404(11)
O1F O 0.2961(3) 0.5870(7) 0.8366(6)
O2F O 0.2473(3) 0.5545(7) 0.8740(5)
O3F O 0.3286(3) 0.4521(6) 0.9109(5)
O4F O 0.2824(3) 0.4092(6) 0.9362(5)
O5F O 0.2625(3) 0.4413(7) 0.8203(5)
O6F O 0.3096(3) 0.5691(6) 0.9628(5)
O7F O 0.3249(3) 0.7068(7) 1.0386(6)
O8F O 0.3538(3) 0.5577(7) 1.0883(6)
O9F O 0.3021(3) 0.6119(6) 1.1068(5)
O10F O 0.2990(2) 0.4774(6) 1.0534(5)
O11F O 0.2631(3) 0.6250(6) 0.9826(5)
O12F O 0.2060(3) 0.6822(7) 0.8726(6)
O13F O 0.2013(3) 0.5911(6) 0.9662(5)
O14F O 0.2304(3) 0.4643(6) 0.9579(5)
O15F O 0.1850(3) 0.5262(7) 0.8526(6)
O16F O 0.1434(2) 0.3919(7) 0.8084(5)
O17F O 0.1946(3) 0.3163(6) 0.9170(5)
O18F O 0.1684(3) 0.4536(6) 0.9306(5)
O19F O 0.2127(3) 0.3884(7) 0.8379(6)
O20F O 0.2339(3) 0.2929(7) 0.7681(5)
O21F O 0.2483(3) 0.2593(6) 0.8924(5)
O22F O 0.3001(3) 0.3123(6) 0.8744(5)
O23F O 0.3708(3) 0.3204(7) 0.9620(6)
O24F O 0.3222(3) 0.2730(7) 0.9947(5)
O25F O 0.3518(3) 0.4161(6) 1.0343(5)
O26F O 0.3988(3) 0.4385(7) 1.1651(5)
O27F O 0.3407(3) 0.3465(6) 1.1230(5)
O28F O 0.3418(3) 0.4924(7) 1.1724(5)
O29F O 0.2934(3) 0.5474(7) 1.2080(5)
O30F O 0.2865(3) 0.4052(7) 1.1473(5)
O31F O 0.2463(3) 0.5274(6) 1.0782(5)
O32F O 0.1771(3) 0.5249(7) 1.0435(6)
O33F O 0.2113(3) 0.3895(7) 1.0414(5)
O34F O 0.2670(3) 0.3222(6) 1.0224(5)
N1F N 0.3309(4) 0.2604(9) 1.2225(6)
H1F H 0.35220 0.25420 1.22870
H2F H 0.32390 0.21250 1.22800
N2F N 0.3652(7) 0.4161(19) 1.3465(15)
H3F H 0.35310 0.40510 1.36430
H4F H 0.38030 0.45280 1.36210
C1F C 0.3329(6) 0.3137(15) 1.2736(12)
H5F H 0.33760 0.28270 1.31080
H6F H 0.31140 0.34050 1.25910
C2F C 0.3599(6) 0.3722(15) 1.2898(13)
H7F H 0.38080 0.34570 1.29810
H8F H 0.35360 0.40860 1.25460
N3A N 0.0202(3) 0.5370(8) 1.3232(6)
H9A H 0.04220 0.52210 1.34340
H10A H 0.00820 0.49510 1.29990
C3A C 0.0169(5) 0.5990(11) 1.2789(9)
H11A H 0.03420 0.59210 1.26670
H12A H 0.02060 0.65000 1.29980
W10A W -0.033195(19) 0.87460(4) 1.42936(4)
W11A W -0.084786(18) 0.78001(4) 1.49488(4)
W12A W 0.00611(2) 0.83152(5) 1.60369(4)
W13A W 0.067095(17) 0.72093(5) 1.59612(3)
W14A W 0.019876(18) 0.63940(4) 1.65358(3)
W15A W -0.071492(17) 0.58809(4) 1.54231(3)
W16A W -0.105160(17) 0.62897(4) 1.38723(3)
W17A W -0.053305(18) 0.72122(4) 1.32384(3)
W18A W 0.028043(17) 0.76517(4) 1.42192(3)
Ge2A Ge -0.01754(4) 0.66871(10) 1.48717(8)
Fe3A Fe 0.00554(6) 0.55661(15) 1.39614(11)
Fe4A Fe -0.04002(6) 0.47879(14) 1.45167(11)
O35A O -0.0444(3) 0.9737(7) 1.4164(7)
O36A O -0.0186(2) 0.7374(6) 1.4318(5)
O37A O -0.0066(3) 0.8690(7) 1.5205(5)
O38A O -0.0578(3) 0.8349(7) 1.3474(5)
O39A O 0.0077(3) 0.8730(7) 1.4255(5)
O40A O -0.0687(3) 0.8350(6) 1.4446(5)
O41A O -0.1111(3) 0.8496(8) 1.4997(7)
O42A O -0.0575(2) 0.6674(6) 1.4808(5)
O43A O -0.1178(3) 0.7252(6) 1.4183(5)
O44A O -0.0888(3) 0.6962(7) 1.5444(6)
O45A O -0.0426(3) 0.8064(7) 1.5668(6)
O46A O 0.0082(4) 0.9154(8) 1.6469(7)
O47A O 0.0123(3) 0.7534(7) 1.6652(5)
O48A O 0.0105(3) 0.7060(6) 1.5637(5)
O49A O 0.0520(3) 0.8198(7) 1.6226(6)
O50A O 0.1098(3) 0.7433(8) 1.6345(6)
O51A O 0.0514(3) 0.7692(7) 1.5146(5)
O52A O 0.0656(3) 0.6225(7) 1.5652(6)
O53A O 0.0632(3) 0.6748(7) 1.6674(5)
O54A O 0.0314(3) 0.6075(8) 1.7305(5)
O55A O 0.0241(2) 0.5481(7) 1.6156(5)
O56A O -0.0286(3) 0.6259(7) 1.6115(5)
O57A O -0.0869(2) 0.5394(7) 1.5861(5)
O58A O -0.0476(3) 0.5089(7) 1.5277(5)
O59A O -0.1088(3) 0.5785(7) 1.4591(5)
O60A O -0.1448(3) 0.6061(7) 1.3277(6)
O61A O -0.0796(3) 0.5452(7) 1.3900(5)
O62A O -0.0885(3) 0.6956(7) 1.3452(5)
O63A O -0.0773(3) 0.7320(8) 1.2414(5)
O64A O -0.0376(3) 0.6218(7) 1.3361(5)
O65A O -0.0099(3) 0.7629(7) 1.3354(5)
O66A O 0.0596(3) 0.8033(7) 1.4085(6)
O67A O 0.0345(2) 0.6615(7) 1.4228(5)
O68A O -0.0050(2) 0.5739(6) 1.4761(5)
Fe3D Fe 0.00554(6) 0.44339(15) 0.89614(11)
Fe3E Fe -0.00554(6) 0.44339(15) 1.60386(11)
Fe4D Fe -0.04002(6) 0.52121(14) 0.95167(11)
Fe4E Fe 0.04002(6) 0.52121(14) 1.54833(11)
O52D O 0.0656(3) 0.3775(7) 1.0652(6)
O52E O -0.0656(3) 0.3775(7) 1.4348(6)
O55D O 0.0241(2) 0.4519(7) 1.1156(5)
O55E O -0.0241(2) 0.4519(7) 1.3844(5)
O58D O -0.0476(3) 0.4911(7) 1.0277(5)
O58E O 0.0476(3) 0.4911(7) 1.4723(5)
O68D O -0.0050(2) 0.4261(6) 0.9761(5)
O68E O 0.0050(2) 0.4261(6) 1.5239(5)
N4A N -0.0330(5) 0.9349(10) 1.2756(9)
H13A H -0.01920 0.94410 1.31510
H14A H -0.05450 0.93620 1.26140
C4A C -0.0198(5) 0.9172(14) 1.2333(10)
H15A H -0.02850 0.95610 1.19930
H16A H -0.02810 0.86560 1.21430
#END
