
#######################################################################
#
#                 Cambridge Crystallographic Data Centre
#                                CCDC
#
#######################################################################
#
# If this CIF has been generated from an entry in the Cambridge
# Structural Database, then it will include bibliographic, chemical,
# crystal, experimental, refinement or atomic coordinate data resulting
# from the CCDC's data processing and validation procedures.
#
#######################################################################

data_CSD_CIF_ZIDYOC
_audit_creation_date 2013-08-14
_audit_creation_method CSD-ConQuest-V1
_database_code_CSD ZIDYOC
_database_code_depnum_ccdc_archive 'CCDC 916424'
_chemical_formula_sum 'C33 H31 N2 O14 P3 U2'
_chemical_formula_moiety
;
(C18 H18 O14 P3 U2 1-)n,C15 H13 N2 1+
;
_journal_coden_Cambridge 1295
_journal_volume 34
_journal_year 2013
_journal_page_first 55
_journal_name_full 'Inorg.Chem.Commun. '
loop_
_publ_author_name
"Hong-Yue Wu"
"Yu-Qin Ma"
"Xiuwu Zhang"
"Hongwei Zhang"
"Xiu-Yun Yang"
"Yun-Hui Li"
"Hao Wang"
"Shuang Yao"
"Weiting Yang"
_chemical_name_systematic
;
catena-[1-(Biphenyl-4-yl)-1H-imidazol-3-ium 
bis(\m~3~-phenylphosphonato)-(hydrogen 
phenylphosphonato)-aqua-tetraoxo-di-uranium]
;
_cell_volume   3831.147
_exptl_crystal_density_diffrn 2.161
_diffrn_ambient_temperature 273
#These two values have been output from a single CSD field.
_refine_ls_R_factor_gt 0.0616
_refine_ls_wR_factor_gt 0.0616
_symmetry_cell_setting monoclinic
_symmetry_space_group_name_H-M 'P 21/c'
_symmetry_Int_Tables_number 14
loop_
_symmetry_equiv_pos_site_id
_symmetry_equiv_pos_as_xyz
1 x,y,z
2 -x,1/2+y,1/2-z
3 -x,-y,-z
4 x,-1/2-y,-1/2+z
_cell_length_a 15.787(2)
_cell_length_b 26.747(3)
_cell_length_c 9.4444(12)
_cell_angle_alpha 90
_cell_angle_beta 106.120(2)
_cell_angle_gamma 90
_cell_formula_units_Z 4
loop_
_atom_type_symbol
_atom_type_radius_bond
C 0.68
H 0.23
N 0.68
O 0.68
P 1.05
U 1.96
loop_
_atom_site_label
_atom_site_type_symbol
_atom_site_fract_x
_atom_site_fract_y
_atom_site_fract_z
U1 U 0.01341(3) 0.480946(13) -0.20705(4)
U2 U 0.16818(3) 0.330543(13) 0.32220(4)
P1 P 0.1541(2) 0.44562(10) 0.0832(3)
P2 P 0.2062(2) 0.19749(10) 0.4501(3)
P3 P 0.1275(2) 0.44818(10) 0.5175(3)
O1 O 0.0771(5) 0.5355(2) -0.2070(9)
O2 O -0.0472(5) 0.4252(3) -0.2060(9)
O3 O 0.0749(5) 0.4783(3) 0.0705(8)
O4 O 0.0930(6) 0.4865(3) 0.3949(8)
O5 O 0.1469(5) 0.4346(3) -0.0807(8)
O6 O 0.0625(5) 0.4437(3) 0.6102(8)
O7 O 0.2841(6) 0.3403(3) 0.3802(9)
O8 O 0.0535(6) 0.3190(3) 0.2636(9)
O9 O 0.1759(6) 0.2018(3) 0.5882(9)
O10 O 0.1555(5) 0.3986(3) 0.1690(8)
O11 O 0.1442(6) 0.3977(3) 0.4611(9)
O12 O 0.1757(8) 0.3056(3) 0.5777(10)
O13 O 0.1921(7) 0.2441(3) 0.3592(9)
O14 O 0.1554(7) 0.1549(3) 0.3467(8)
H1 H 0.14350 0.13240 0.39690
C1 C 0.2542(8) 0.4808(5) 0.1645(14)
C2 C 0.2794(10) 0.5177(5) 0.0838(17)
H2 H 0.24610 0.52440 -0.01210
C3 C 0.3539(10) 0.5444(5) 0.1466(18)
H3 H 0.37140 0.56910 0.09130
C4 C 0.4037(13) 0.5362(7) 0.2876(18)
H4 H 0.45400 0.55510 0.32860
C5 C 0.3763(11) 0.4971(6) 0.3724(17)
H5 H 0.40800 0.49060 0.46940
C6 C 0.3034(10) 0.4705(6) 0.3065(14)
H6 H 0.28600 0.44470 0.35790
C7 C 0.3211(7) 0.1828(4) 0.5011(14)
C8 C 0.3505(8) 0.1365(4) 0.5620(15)
H7 H 0.31030 0.11280 0.57540
C9 C 0.4401(9) 0.1256(5) 0.6031(19)
H8 H 0.45980 0.09460 0.64390
C10 C 0.5003(6) 0.1609(8) 0.583(3)
H9 H 0.56030 0.15360 0.61070
C11 C 0.4709(10) 0.2072(7) 0.522(3)
H10 H 0.51120 0.23090 0.50890
C12 C 0.3813(11) 0.2181(4) 0.481(2)
H11 H 0.36160 0.24910 0.44030
C13 C 0.2287(10) 0.4724(5) 0.6301(14)
C14 C 0.248(1) 0.5226(5) 0.6424(19)
H12 H 0.20540 0.54540 0.59330
C15 C 0.3313(16) 0.5407(8) 0.728(2)
H13 H 0.34330 0.57480 0.73640
C16 C 0.3951(13) 0.5054(9) 0.800(2)
H14 H 0.45040 0.51630 0.85530
C17 C 0.3769(12) 0.4561(8) 0.789(2)
H15 H 0.41950 0.43320 0.83760
C18 C 0.2921(10) 0.4389(7) 0.7040(17)
H16 H 0.27970 0.40480 0.69830
C19 C 0.9751(11) 0.3485(5) 1.5503(18)
H17 H 1.01090 0.36930 1.62080
C20 C 0.9319(11) 0.3631(6) 1.417(2)
H18 H 0.93200 0.39460 1.37590
C21 C 0.9066(12) 0.2836(8) 1.4498(18)
H19 H 0.88500 0.25110 1.43290
C22 C 0.8309(11) 0.3208(6) 1.203(2)
C23 C 0.7600(11) 0.2928(6) 1.167(2)
H20 H 0.74220 0.27350 1.23550
C24 C 0.7120(16) 0.2943(8) 1.014(2)
H21 H 0.66460 0.27250 0.98230
C25 C 0.729(2) 0.3235(8) 0.917(3)
C26 C 0.8001(19) 0.3543(7) 0.956(2)
H22 H 0.81240 0.37620 0.88750
C27 C 0.8560(14) 0.3527(6) 1.106(3)
H23 H 0.90660 0.37220 1.13630
N1 N 0.8872(9) 0.3218(4) 1.3537(16)
N2 N 0.9618(13) 0.3004(9) 1.573(2)
H24 H 0.98470 0.28350 1.65160
C28 C 0.584(2) 0.3251(8) 0.751(3)
H25 H 0.56900 0.31890 0.83850
C29 C 0.6719(18) 0.3301(8) 0.754(3)
C30 C 0.6941(15) 0.3394(10) 0.624(4)
H26 H 0.75300 0.34270 0.62530
C31 C 0.628(2) 0.3436(9) 0.491(3)
H27 H 0.64330 0.34970 0.40440
C32 C 0.540(2) 0.3385(8) 0.489(3)
H28 H 0.49640 0.34130 0.40060
C33 C 0.5181(14) 0.3293(10) 0.619(4)
H29 H 0.45920 0.32590 0.61760
U1* U 0.01341(3) 0.480946(13) 0.79295(4)
U1B U -0.01341(3) 0.519054(13) 0.20705(4)
U2C U 0.16818(3) 0.169457(13) 0.82220(4)
O3B O -0.0749(5) 0.5217(3) -0.0705(8)
O4B O -0.0930(6) 0.5135(3) -0.3949(8)
O6* O 0.0625(5) 0.4437(3) -0.3898(8)
O9C O 0.1759(6) 0.2982(3) 0.0882(9)
#END
