
#######################################################################
#
#                 Cambridge Crystallographic Data Centre
#                                CCDC
#
#######################################################################
#
# If this CIF has been generated from an entry in the Cambridge
# Structural Database, then it will include bibliographic, chemical,
# crystal, experimental, refinement or atomic coordinate data resulting
# from the CCDC's data processing and validation procedures.
#
#######################################################################

data_CSD_CIF_ZIFCAV
_audit_creation_date 2018-08-20
_audit_creation_method CSD-ConQuest-V1
_database_code_CSD ZIFCAV
_database_code_depnum_ccdc_archive 'CCDC 1845080'
_chemical_formula_sum 'C6 H14 Cr1 N2 Na1 O12'
_chemical_formula_moiety
;
(C6 H6 Cr1 Na1 O12 2-)n,2(H4 N1 1+)
;
_journal_coden_Cambridge 1326
_journal_volume 20
_journal_year 2018
_journal_page_first 22284
_journal_name_full 'Phys.Chem.Chem.Phys.(PCCP) '
loop_
_publ_author_name
"M.Ptak"
"D.Stefanska"
"A.Gagor"
"K.L.Svane"
"A.Walsh"
"W.Paraguassu"
_chemical_name_systematic
;
catena-[diammonium hexakis(\m-formato)-chromium(iii)-sodium(i) ]
;
_cell_volume   1173.102
_exptl_crystal_colour 'violet'
_exptl_crystal_density_diffrn 1.619
_exptl_crystal_description 'prism'
_diffrn_ambient_temperature 298
#These two values have been output from a single CSD field.
_refine_ls_R_factor_gt 0.0399
_refine_ls_wR_factor_gt 0.0399
_symmetry_cell_setting rhombohedral
_symmetry_space_group_name_H-M 'R -3'
_symmetry_Int_Tables_number 148
loop_
_symmetry_equiv_pos_site_id
_symmetry_equiv_pos_as_xyz
1 x,y,z
2 -y,x-y,z
3 -x+y,-x,z
4 2/3+x,1/3+y,1/3+z
5 2/3-y,1/3+x-y,1/3+z
6 2/3-x+y,1/3-x,1/3+z
7 1/3+x,2/3+y,2/3+z
8 1/3-y,2/3+x-y,2/3+z
9 1/3-x+y,2/3-x,2/3+z
10 -x,-y,-z
11 y,-x+y,-z
12 x-y,x,-z
13 -2/3-x,-1/3-y,-1/3-z
14 -2/3+y,-1/3-x+y,-1/3-z
15 -2/3+x-y,-1/3+x,-1/3-z
16 -1/3-x,-2/3-y,-2/3-z
17 -1/3+y,-2/3-x+y,-2/3-z
18 -1/3+x-y,-2/3+x,-2/3-z
_cell_length_a 7.9386(5)
_cell_length_b 7.9386(5)
_cell_length_c 21.494(3)
_cell_angle_alpha 90
_cell_angle_beta 90
_cell_angle_gamma 120
_cell_formula_units_Z 3
loop_
_atom_type_symbol
_atom_type_radius_bond
C 0.68
H 0.23
Cr 1.39
N 0.68
Na 1.66
O 0.68
loop_
_atom_site_label
_atom_site_type_symbol
_atom_site_fract_x
_atom_site_fract_y
_atom_site_fract_z
Cr1 Cr 0.00000 0.00000 1.00000
Na1 Na 0.66670 0.33330 0.83330
O1 O 0.1735(2) 0.2190(2) 0.94598(8)
C1 C 0.3428(4) 0.2640(4) 0.92965(13)
H1 H 0.39310 0.19040 0.94640
O2 O 0.4477(3) 0.3939(3) 0.89418(9)
N1 N 0.33330 0.66670 0.8565(2)
H2 H 0.365(4) 0.583(3) 0.8711(7)
H3 H 0.33330 0.66670 0.8160(3)
O1A O -0.2190(2) -0.0455(2) 0.94598(8)
C1A C -0.2640(4) 0.0788(4) 0.92965(13)
H1A H -0.19040 0.20270 0.94640
O2A O -0.3939(3) 0.0538(3) 0.89418(9)
O1B O 0.0455(2) -0.1735(2) 0.94598(8)
C1B C -0.0788(4) -0.3428(4) 0.92965(13)
H1B H -0.20270 -0.39310 0.94640
O2B O -0.0538(3) -0.4477(3) 0.89418(9)
O1I O -0.1735(2) -0.2190(2) 1.05402(8)
C1I C -0.3428(4) -0.2640(4) 1.07035(13)
H1I H -0.39310 -0.19040 1.05360
O2I O -0.4477(3) -0.3939(3) 1.10582(9)
O1J O 0.2190(2) 0.0455(2) 1.05402(8)
C1J C 0.2640(4) -0.0788(4) 1.07035(13)
H1J H 0.19040 -0.20270 1.05360
O2J O 0.3939(3) -0.0538(3) 1.10582(9)
O1K O -0.0455(2) 0.1735(2) 1.05402(8)
C1K C 0.0788(4) 0.3428(4) 1.07035(13)
H1K H 0.20270 0.39310 1.05360
O2K O 0.0538(3) 0.4477(3) 1.10582(9)
Na1* Na -0.33330 -0.66670 0.83330
Na1** Na -0.33330 0.33330 0.83330
Na1C Na -0.66663 -0.33337 1.16663
Na1C* Na 0.33337 -0.33337 1.16663
Na1C** Na 0.33337 0.66663 1.16663
O2A* O 0.6061(3) 0.0538(3) 0.89418(9)
O2B* O 0.9462(3) 0.5523(3) 0.89418(9)
O2L O 0.885633(300) 0.272767(300) 0.772487(90)
O2M O 0.727233(300) 0.612867(300) 0.772487(90)
O2N O 0.387133(300) 0.114367(300) 0.772487(90)
H2A H 0.417(4) 0.782(3) 0.8711(7)
H2B H 0.218(4) 0.635(3) 0.8711(7)
#END
