
#######################################################################
#
#                 Cambridge Crystallographic Data Centre
#                                CCDC
#
#######################################################################
#
# If this CIF has been generated from an entry in the Cambridge
# Structural Database, then it will include bibliographic, chemical,
# crystal, experimental, refinement or atomic coordinate data resulting
# from the CCDC's data processing and validation procedures.
#
#######################################################################

data_CSD_CIF_ZIFZOG
_audit_creation_date 2018-08-20
_audit_creation_method CSD-ConQuest-V1
_database_code_CSD ZIFZOG
_database_code_depnum_ccdc_archive 'CCDC 1831589'
_chemical_formula_sum 'C52 H56 Eu2 N6 O22'
_chemical_formula_moiety
;
(C42 H22 Eu2 N2 O18 2-)n,2(C2 H8 N1 1+),2(C3 H7 N1 O1),2(H2 O1)
;
_journal_coden_Cambridge 1147
_journal_volume 18
_journal_year 2018
_journal_page_first 5353
_journal_name_full 'Cryst.Growth Des. '
loop_
_publ_author_name
"Jing-Jing Huang"
"Jie-Hui Yu"
"Fu-Quan Bai"
"Ji-Qing Xu"
_chemical_name_systematic
;
catena-[bis(dimethylammonium) 
bis(\m-5,5'-(pyridine-3,5-diyl)di(benzene-1,3-dicarboxylato))-diaqua-di-europi
um N,N-dimethylformamide solvate dihydrate]
;
_cell_volume   2474.309
_exptl_crystal_colour 'colorless'
_exptl_crystal_description 'block'
_diffrn_ambient_temperature 293
_refine_special_details
;
Disordered dimethylammonium ions and water and N,N-dimethylformamide solvent 
molecules were not modelled and the disordered density was taken into account 
using the SQUEEZE/PLATON procedure.
;
#These two values have been output from a single CSD field.
_refine_ls_R_factor_gt 0.0581
_refine_ls_wR_factor_gt 0.0581
_symmetry_cell_setting triclinic
_symmetry_space_group_name_H-M 'P -1'
_symmetry_Int_Tables_number 2
loop_
_symmetry_equiv_pos_site_id
_symmetry_equiv_pos_as_xyz
1 x,y,z
2 -x,-y,-z
_cell_length_a 9.7329(3)
_cell_length_b 15.7974(5)
_cell_length_c 17.7693(6)
_cell_angle_alpha 114.295(1)
_cell_angle_beta 91.080(1)
_cell_angle_gamma 95.362(1)
_cell_formula_units_Z 2
loop_
_atom_type_symbol
_atom_type_radius_bond
C 0.68
H 0.23
Eu 1.98
N 0.68
O 0.68
loop_
_atom_site_label
_atom_site_type_symbol
_atom_site_fract_x
_atom_site_fract_y
_atom_site_fract_z
Eu1 Eu 1.40843(3) 1.768957(19) 0.12501(2)
Eu2 Eu 1.10933(3) 1.72379(2) 0.37186(2)
O1 O 1.1292(6) 1.6365(3) 0.2279(3)
O2 O 1.2777(6) 1.6405(3) 0.1353(4)
O3 O 1.5340(6) 1.3715(3) -0.0118(3)
O4 O 1.5072(6) 1.2464(4) 0.0139(4)
O5 O 1.1744(5) 0.7669(4) 0.0662(4)
O6 O 1.3077(5) 0.8990(3) 0.1020(4)
O7 O 0.6772(5) 0.7750(4) 0.1227(4)
O8 O 0.5850(5) 0.9079(4) 0.1692(4)
O9 O 0.8679(5) 1.6795(4) 0.3138(4)
O10 O 0.9576(5) 1.5704(3) 0.3385(3)
O11 O 0.2456(5) 1.6119(4) 0.3941(4)
O12 O 0.3636(6) 1.7063(4) 0.3496(4)
O13 O 0.0285(7) 1.2682(4) 0.5058(4)
O14 O 0.0307(10) 1.1526(5) 0.5454(5)
O15 O 0.1472(8) 0.8471(4) 0.3337(5)
O16 O 0.3030(7) 0.8500(3) 0.2462(4)
C1 C 1.2930(7) 1.3193(4) 0.1207(4)
H1 H 1.31060 1.25850 0.10930
C2 C 1.3727(7) 1.3713(4) 0.0864(4)
C3 C 1.3485(7) 1.4630(4) 0.1047(4)
H2 H 1.40190 1.49800 0.08250
C4 C 1.2447(7) 1.5023(4) 0.1561(4)
C5 C 1.1645(7) 1.4500(4) 0.1892(4)
H3 H 1.09460 1.47650 0.22320
C6 C 1.1876(7) 1.3577(4) 0.1718(4)
C7 C 0.9408(9) 1.2151(5) 0.2847(6)
H4 H 0.88560 1.18490 0.31030
C8 C 0.9961(7) 1.1608(5) 0.2108(5)
C9 C 1.0769(7) 1.2067(5) 0.1728(5)
H5 H 1.11550 1.17260 0.12330
C10 C 1.1007(7) 1.3041(4) 0.2085(5)
C11 C 1.0412(9) 1.3504(5) 0.2829(5)
H6 H 1.05750 1.41520 0.30800
C12 C 1.0661(7) 0.9077(5) 0.1139(5)
C13 C 0.9364(7) 0.8623(5) 0.1142(5)
H7 H 0.92400 0.79740 0.09340
C14 C 0.8251(7) 0.9128(5) 0.1450(5)
C15 C 0.8445(7) 1.0105(5) 0.1767(5)
H8 H 0.77080 1.04450 0.19860
C16 C 0.9723(7) 1.0572(5) 0.1760(5)
C17 C 1.0834(7) 1.0054(5) 0.1449(5)
H9 H 1.16960 1.03620 0.14480
C18 C 1.2159(7) 1.6012(4) 0.1749(4)
C19 C 1.4788(7) 1.3268(5) 0.0273(4)
C20 C 1.1893(7) 0.8541(5) 0.0901(5)
C21 C 0.6874(7) 0.8621(5) 0.1458(4)
C22 C 0.4716(7) 1.5780(5) 0.3501(5)
C23 C 0.6037(7) 1.6177(5) 0.3476(5)
H10 H 0.61940 1.68090 0.35910
C24 C 0.7129(6) 1.5627(4) 0.3278(4)
C25 C 0.6879(7) 1.4682(5) 0.3085(4)
H11 H 0.76070 1.43150 0.29430
C26 C 0.5557(7) 1.4270(4) 0.3098(4)
C27 C 0.4487(7) 1.4838(5) 0.3329(5)
H12 H 0.36070 1.45800 0.33690
C28 C 0.5923(10) 1.2658(5) 0.2137(6)
H13 H 0.65300 1.29250 0.18770
C29 C 0.4829(11) 1.1352(5) 0.2217(6)
H14 H 0.46780 1.07040 0.20070
C30 C 0.4141(7) 1.1862(5) 0.2902(5)
C31 C 0.4389(8) 1.2840(5) 0.3204(5)
H15 H 0.39460 1.32160 0.36630
C32 C 0.5293(7) 1.3246(5) 0.2820(4)
C33 C 0.1465(10) 1.0412(5) 0.3982(6)
H16 H 0.09100 1.00930 0.42240
C34 C 0.2277(9) 0.9929(5) 0.3342(5)
C35 C 0.3147(9) 1.0415(5) 0.3014(5)
H17 H 0.37190 1.00890 0.26050
C36 C 0.3190(8) 1.1381(4) 0.3281(5)
C37 C 0.2323(9) 1.1847(5) 0.3898(5)
H18 H 0.23070 1.24870 0.40710
C38 C 0.1489(10) 1.1381(5) 0.4259(6)
C39 C 0.8548(7) 1.6065(5) 0.3266(5)
C40 C 0.3536(7) 1.6358(5) 0.3667(5)
C41 C 0.0641(11) 1.1902(5) 0.4968(6)
C42 C 0.2247(9) 0.8882(5) 0.3019(5)
N1 N 0.9627(9) 1.3082(5) 0.3206(6)
N2 N 0.5699(11) 1.1726(5) 0.1835(6)
O17 O 1.5241(7) 1.7407(5) 0.2370(4)
O18 O 1.2513(11) 1.8358(9) 0.4913(6)
Eu1* Eu 0.40843(3) 0.768957(19) 0.12501(2)
Eu1** Eu 1.40843(3) 0.768957(19) 0.12501(2)
Eu1A Eu 1.59157(3) 1.231043(19) -0.12501(2)
Eu2* Eu 0.10933(3) 0.72379(2) 0.37186(2)
Eu2** Eu 0.10933(3) 1.72379(2) 0.37186(2)
Eu2A Eu -0.10933(3) 1.27621(2) 0.62814(2)
O3A O 1.4660(6) 1.6285(3) 0.0118(3)
O4A O 1.4928(6) 1.7536(4) -0.0139(4)
O5* O 1.1744(5) 1.7669(4) 0.0662(4)
O6* O 1.3077(5) 1.8990(3) 0.1020(4)
O7* O 1.6772(5) 1.7750(4) 0.1227(4)
O8* O 1.5850(5) 1.9079(4) 0.1692(4)
O11* O 1.2456(5) 1.6119(4) 0.3941(4)
O12* O 1.3636(6) 1.7063(4) 0.3496(4)
O13A O 0.9715(7) 1.7318(4) 0.4942(4)
O14A O 0.9693(10) 1.8474(5) 0.4546(5)
O15* O 1.1472(8) 1.8471(4) 0.3337(5)
O16* O 1.3030(7) 1.8500(3) 0.2462(4)
#END
