
#######################################################################
#
#                 Cambridge Crystallographic Data Centre
#                                CCDC
#
#######################################################################
#
# If this CIF has been generated from an entry in the Cambridge
# Structural Database, then it will include bibliographic, chemical,
# crystal, experimental, refinement or atomic coordinate data resulting
# from the CCDC's data processing and validation procedures.
#
#######################################################################

data_CSD_CIF_ZIGQIS
_audit_creation_date 2018-08-21
_audit_creation_method CSD-ConQuest-V1
_database_code_CSD ZIGQIS
_database_code_depnum_ccdc_archive 'CCDC 1819230'
_chemical_formula_sum 'C43 H28 Eu2 O17 P2'
_chemical_formula_moiety
;
(C43 H25 Eu2 O16 P2 1-)n,H3 O1 1+
;
_journal_coden_Cambridge 920
_journal_volume 13
_journal_year 2018
_journal_page_first 2126
_journal_name_full 'Chem.Asian J. '
loop_
_publ_author_name
"Wei Chen"
"Ruiqing Fan"
"Ping Wang"
"Yuwei Dong"
"Yulin Yang"
_chemical_name_systematic
;
catena-[oxonium 
(\m-formato)-bis(\m-4,4',4''-phosphoryltribenzoato)-di-europium]
;
_cell_volume   3468.808
_exptl_crystal_colour 'colorless'
_exptl_crystal_density_diffrn 1.132
_exptl_crystal_description 'block'
_diffrn_ambient_temperature 293
_refine_special_details
;
Disordered oxonium ions were not modelled and the disordered density was 
taken into account using the SQUEEZE/PLATON procedure.
;
#These two values have been output from a single CSD field.
_refine_ls_R_factor_gt 0.0495
_refine_ls_wR_factor_gt 0.0495
_symmetry_cell_setting monoclinic
_symmetry_space_group_name_H-M 'P 2/n'
_symmetry_Int_Tables_number 13
loop_
_symmetry_equiv_pos_site_id
_symmetry_equiv_pos_as_xyz
1 x,y,z
2 1/2-x,y,1/2-z
3 -x,-y,-z
4 -1/2+x,-y,-1/2+z
_cell_length_a 14.5800(14)
_cell_length_b 10.5622(10)
_cell_length_c 23.675(2)
_cell_angle_alpha 90
_cell_angle_beta 107.93
_cell_angle_gamma 90
_cell_formula_units_Z 2
loop_
_atom_type_symbol
_atom_type_radius_bond
C 0.68
H 0.23
Eu 1.98
O 0.68
P 1.05
loop_
_atom_site_label
_atom_site_type_symbol
_atom_site_fract_x
_atom_site_fract_y
_atom_site_fract_z
Eu1 Eu 0.42576(4) 0.43531(5) 0.27244(2)
P1 P 0.6079(2) 0.6412(3) 0.37908(12)
O1 O 0.5263(6) 0.5569(8) 0.3530(3)
O2 O 0.4214(7) 1.1997(8) 0.2642(4)
O3 O 0.5339(7) 1.2784(8) 0.3429(4)
O4 O 0.6753(7) 0.6167(11) 0.6733(4)
O5 O 0.8291(7) 0.6013(10) 0.6741(4)
O6 O 0.9440(6) 0.3873(9) 0.2720(4)
O7 O 0.9905(7) 0.5869(8) 0.2788(4)
O8 O 0.3289(7) 0.6253(9) 0.2567(4)
C1 C 0.5775(9) 0.8027(12) 0.3605(5)
C2 C 0.6207(11) 0.9002(12) 0.3956(7)
H1 H 0.66950 0.88430 0.43080
C3 C 0.5942(12) 1.0183(14) 0.3801(7)
H2 H 0.62500 1.08470 0.40440
C4 C 0.519(1) 1.0447(12) 0.3268(6)
C5 C 0.4849(15) 0.9496(12) 0.2886(6)
H3 H 0.44190 0.96690 0.25130
C6 C 0.5123(12) 0.8297(14) 0.3036(6)
H4 H 0.48860 0.76440 0.27670
C7 C 0.4905(10) 1.1803(13) 0.3110(6)
C8 C 0.6512(8) 0.6311(11) 0.4570(5)
C9 C 0.5818(10) 0.6332(17) 0.4878(5)
H5 H 0.51680 0.64140 0.46680
C10 C 0.6094(11) 0.6234(17) 0.5473(6)
H6 H 0.56330 0.61970 0.56700
C11 C 0.7079(9) 0.6187(12) 0.5797(5)
C12 C 0.7751(11) 0.627(2) 0.5504(5)
H7 H 0.84020 0.63150 0.57190
C13 C 0.7466(11) 0.6280(18) 0.4872(5)
H8 H 0.79230 0.62670 0.46720
C14 C 0.7409(9) 0.6107(11) 0.6483(5)
C15 C 0.7093(9) 0.6065(12) 0.3532(5)
C16 C 0.7678(10) 0.6963(12) 0.3395(6)
C17 C 0.8366(11) 0.6670(13) 0.3190(6)
C18 C 0.8588(9) 0.5424(14) 0.3128(5)
C19 C 0.8025(11) 0.4478(14) 0.3258(6)
H9 H 0.81500 0.36290 0.32070
C20 C 0.7274(9) 0.4830(12) 0.3465(5)
H10 H 0.68910 0.42120 0.35590
C21 C 0.9335(9) 0.5054(15) 0.2869(5)
C22 C 0.25000 0.677(2) 0.25000
H11 H 0.25000 0.76500 0.25000
O8A O 0.1711(7) 0.6253(9) 0.2433(4)
Eu1A Eu 0.07424(4) 0.43531(5) 0.22756(2)
P1A P -0.1079(2) 0.6412(3) 0.12092(12)
O1A O -0.0263(6) 0.5569(8) 0.1470(3)
O2A O 0.0786(7) 1.1997(8) 0.2358(4)
O3A O -0.0339(7) 1.2784(8) 0.1571(4)
O4A O -0.1753(7) 0.6167(11) -0.1733(4)
O5A O -0.3291(7) 0.6013(10) -0.1741(4)
O6A O -0.4440(6) 0.3873(9) 0.2280(4)
O7A O -0.4905(7) 0.5869(8) 0.2212(4)
C1A C -0.0775(9) 0.8027(12) 0.1395(5)
C2A C -0.1207(11) 0.9002(12) 0.1044(7)
H1A H -0.16950 0.88430 0.06920
C3A C -0.0942(12) 1.0183(14) 0.1199(7)
H2A H -0.12500 1.08470 0.09560
C4A C -0.019(1) 1.0447(12) 0.1732(6)
C5A C 0.0151(15) 0.9496(12) 0.2114(6)
H3A H 0.05810 0.96690 0.24870
C6A C -0.0123(12) 0.8297(14) 0.1964(6)
H4A H 0.01140 0.76440 0.22330
C7A C 0.0095(10) 1.1803(13) 0.1890(6)
C8A C -0.1512(8) 0.6311(11) 0.0430(5)
C9A C -0.0818(10) 0.6332(17) 0.0122(5)
H5A H -0.01680 0.64140 0.03320
C10A C -0.1094(11) 0.6234(17) -0.0473(6)
H6A H -0.06330 0.61970 -0.06700
C11A C -0.2079(9) 0.6187(12) -0.0797(5)
C12A C -0.2751(11) 0.627(2) -0.0504(5)
H7A H -0.34020 0.63150 -0.07190
C13A C -0.2466(11) 0.6280(18) 0.0128(5)
H8A H -0.29230 0.62670 0.03280
C14A C -0.2409(9) 0.6107(11) -0.1483(5)
C15A C -0.2093(9) 0.6065(12) 0.1468(5)
C16A C -0.2678(10) 0.6963(12) 0.1605(6)
C17A C -0.3366(11) 0.6670(13) 0.1810(6)
C18A C -0.3588(9) 0.5424(14) 0.1872(5)
C19A C -0.3025(11) 0.4478(14) 0.1742(6)
H9A H -0.31500 0.36290 0.17930
C20A C -0.2274(9) 0.4830(12) 0.1535(5)
H10A H -0.18910 0.42120 0.14410
C21A C -0.4335(9) 0.5054(15) 0.2131(5)
Eu1* Eu -0.57424(4) 0.43531(5) 0.27244(2)
Eu1** Eu 0.42576(4) 1.43531(5) 0.27244(2)
Eu1A* Eu 0.07424(4) 1.43531(5) 0.22756(2)
Eu1A** Eu 1.07424(4) 0.43531(5) 0.22756(2)
Eu1B Eu -0.42576(4) 0.56469(5) -0.27244(2)
Eu1B* Eu 0.57424(4) 0.56469(5) 0.72756(2)
Eu1C Eu -0.07424(4) 0.56469(5) -0.22756(2)
Eu1C* Eu 0.92576(4) 0.56469(5) 0.77244(2)
O2* O 0.4214(7) 0.1997(8) 0.2642(4)
O2A* O 0.0786(7) 0.1997(8) 0.2358(4)
O3* O 0.5339(7) 0.2784(8) 0.3429(4)
O3A* O -0.0339(7) 0.2784(8) 0.1571(4)
O4B O 0.3247(7) 0.3833(11) 0.3267(4)
O4C O 0.1753(7) 0.3833(11) 0.1733(4)
O5B O 0.1709(7) 0.3987(10) 0.3259(4)
O5C O 0.3291(7) 0.3987(10) 0.1741(4)
O6* O -0.0560(6) 0.3873(9) 0.2720(4)
O6A* O 0.5560(6) 0.3873(9) 0.2280(4)
O7* O -0.0095(7) 0.5869(8) 0.2788(4)
O7A* O 0.5095(7) 0.5869(8) 0.2212(4)
#END
