
#######################################################################
#
#                 Cambridge Crystallographic Data Centre
#                                CCDC
#
#######################################################################
#
# If this CIF has been generated from an entry in the Cambridge
# Structural Database, then it will include bibliographic, chemical,
# crystal, experimental, refinement or atomic coordinate data resulting
# from the CCDC's data processing and validation procedures.
#
#######################################################################

data_CSD_CIF_ZIHFEB
_audit_creation_date 1996-12-03
_audit_creation_method CSD-ConQuest-V1
_database_code_CSD ZIHFEB
_database_code_depnum_ccdc_archive 'CCDC 1312455'
_chemical_formula_sum 'C14 H6 K2 Mn1 N2 O8'
_chemical_formula_moiety
;
(C14 H6 Mn1 N2 O8 2-)n,2n(K1 1+)
;
_journal_coden_Cambridge 182
_journal_year 1995
_journal_page_first 2197
_journal_name_full 'Chem.Commun. '
loop_
_publ_author_name
"S.O.H.Gutschke"
"A.M.Z.Slawin"
"P.T.Wood"
_chemical_name_systematic
;
catena-(Di-potassium bis(\m~4~-pyridine-2,3-dicarboxylato-O,O',N)-manganese)
;
_cell_volume   3214.045
_exptl_crystal_colour 'yellow-brown'
_exptl_crystal_density_diffrn 1.91
_exptl_special_details
;
Isostructural with the zinc analogue

;
_diffrn_ambient_temperature ?
_diffrn_special_details
;
The study was carried out at room temperature,in the range 283-303K

;
#These two values have been output from a single CSD field.
_refine_ls_R_factor_gt 0.038
_refine_ls_wR_factor_gt 0.038
_symmetry_cell_setting tetragonal
_symmetry_space_group_name_H-M 'I 41/a'
_symmetry_Int_Tables_number 88
loop_
_symmetry_equiv_pos_site_id
_symmetry_equiv_pos_as_xyz
1 x,y,z
2 3/4-y,1/4+x,1/4+z
3 1/2-x,-y,1/2+z
4 3/4+y,3/4-x,3/4+z
5 1/2+x,1/2+y,1/2+z
6 1/4-y,3/4+x,3/4+z
7 -x,1/2-y,z
8 1/4+y,1/4-x,1/4+z
9 -x,-y,-z
10 -3/4+y,-1/4-x,-1/4-z
11 -1/2+x,y,-1/2-z
12 -3/4-y,-3/4+x,-3/4-z
13 -1/2-x,-1/2-y,-1/2-z
14 -1/4+y,-3/4-x,-3/4-z
15 x,-1/2+y,-z
16 -1/4-y,-1/4+x,-1/4-z
_cell_length_a 14.049(7)
_cell_length_b 14.049(7)
_cell_length_c 16.284(2)
_cell_angle_alpha 90
_cell_angle_beta 90
_cell_angle_gamma 90
_cell_formula_units_Z 8
loop_
_atom_type_symbol
_atom_type_radius_bond
C 0.68
H 0.23
K 1.55
Mn 1.35
N 0.68
O 0.68
loop_
_atom_site_label
_atom_site_type_symbol
_atom_site_fract_x
_atom_site_fract_y
_atom_site_fract_z
C1 C 0.4343(4) 0.4291(4) -0.7521(4)
C2 C 0.3822(4) 0.4931(4) -0.7048(4)
C3 C 0.6892(4) 0.0430(4) -0.6550(4)
C4 C 0.7058(5) 0.1398(5) -0.6506(4)
C5 C 0.6489(4) 0.1988(5) -0.6982(4)
C6 C 0.5094(5) 0.4588(5) -0.8155(4)
C7 C 0.3972(4) 0.5995(4) -0.7068(4)
H1 H 0.27180 0.49640 -0.61900
H2 H 0.23230 0.32880 -0.62040
H3 H 0.65780 0.27680 -0.70340
Mn1 Mn 0.50000 0.75000 -0.59467(9)
O1 O 0.5597(3) 0.3917(3) -0.8452(3)
O2 O 0.4852(3) -0.0436(3) -0.8334(3)
O3 O 0.4727(3) 0.6325(3) -0.6772(3)
O4 O 0.6715(3) -0.1473(3) -0.7316(3)
N1 N 0.5814(3) 0.1659(3) -0.7483(3)
K1 K 0.4192(1) 0.6087(1) 0.0204(1)
Mn1C Mn 0.50000 0.25000 -0.84467(9)
O1F O 0.4403(3) 0.1083(3) -0.8452(3)
C6F C 0.4906(5) 0.0412(5) -0.8155(4)
C1F C 0.5657(4) 0.0709(4) -0.7521(4)
C2F C 0.6178(4) 0.0069(4) -0.7048(4)
O3C O 0.3825(3) 0.2773(3) -0.9272(3)
O3E O 0.6175(3) 0.2227(3) -0.9272(3)
N1F N 0.4186(3) 0.3341(3) -0.7483(3)
C5F C 0.3511(4) 0.3012(5) -0.6982(4)
C4F C 0.2942(5) 0.3602(5) -0.6506(4)
C3F C 0.3108(4) 0.4570(4) -0.6550(4)
H3F H 0.34220 0.22320 -0.70340
H2F H 0.76770 0.17120 -0.62040
H1F H 0.72820 0.00360 -0.61900
C7F C 0.6028(4) -0.0995(4) -0.7068(4)
O3F O 0.5273(3) -0.1325(3) -0.6772(3)
Mn1* Mn 0.50000 -0.25000 -0.59467(9)
O2F O 0.5148(3) 0.5436(3) -0.8334(3)
O4F O 0.3285(3) 0.6473(3) -0.7316(3)
#END
