
#######################################################################
#
#                 Cambridge Crystallographic Data Centre
#                                CCDC
#
#######################################################################
#
# If this CIF has been generated from an entry in the Cambridge
# Structural Database, then it will include bibliographic, chemical,
# crystal, experimental, refinement or atomic coordinate data resulting
# from the CCDC's data processing and validation procedures.
#
#######################################################################

data_CSD_CIF_ZIHFIF
_audit_creation_date 1996-12-03
_audit_creation_method CSD-ConQuest-V1
_database_code_CSD ZIHFIF
_database_code_depnum_ccdc_archive 'CCDC 1312456'
_chemical_formula_sum 'C14 H6 K2 N2 O8 Zn1'
_chemical_formula_moiety
;
(C14 H6 N2 O8 Zn1 2-)n,2n(K1 1+)
;
_journal_coden_Cambridge 182
_journal_year 1995
_journal_page_first 2197
_journal_name_full 'Chem.Commun. '
loop_
_publ_author_name
"S.O.H.Gutschke"
"A.M.Z.Slawin"
"P.T.Wood"
_chemical_name_systematic
;
catena-(Di-potassium bis(\m~4~-pyridine-2,3-dicarboxylato-O,O',N)-zinc)
;
_cell_volume   3114.004
_exptl_crystal_colour 'yellow'
_exptl_crystal_density_diffrn 2.02
_exptl_special_details
;
Isostructural with the manganese analogue

;
_diffrn_ambient_temperature ?
_diffrn_special_details
;
The study was carried out at room temperature,in the range 283-303K

;
#These two values have been output from a single CSD field.
_refine_ls_R_factor_gt 0.032
_refine_ls_wR_factor_gt 0.032
_symmetry_cell_setting tetragonal
_symmetry_space_group_name_H-M 'I 41/a'
_symmetry_Int_Tables_number 88
loop_
_symmetry_equiv_pos_site_id
_symmetry_equiv_pos_as_xyz
1 x,y,z
2 3/4-y,1/4+x,1/4+z
3 1/2-x,-y,1/2+z
4 3/4+y,3/4-x,3/4+z
5 1/2+x,1/2+y,1/2+z
6 1/4-y,3/4+x,3/4+z
7 -x,1/2-y,z
8 1/4+y,1/4-x,1/4+z
9 -x,-y,-z
10 -3/4+y,-1/4-x,-1/4-z
11 -1/2+x,y,-1/2-z
12 -3/4-y,-3/4+x,-3/4-z
13 -1/2-x,-1/2-y,-1/2-z
14 -1/4+y,-3/4-x,-3/4-z
15 x,-1/2+y,-z
16 -1/4-y,-1/4+x,-1/4-z
_cell_length_a 13.876(8)
_cell_length_b 13.876(8)
_cell_length_c 16.173(1)
_cell_angle_alpha 90
_cell_angle_beta 90
_cell_angle_gamma 90
_cell_formula_units_Z 8
loop_
_atom_type_symbol
_atom_type_radius_bond
C 0.68
H 0.23
K 1.50
N 0.68
O 0.68
Zn 1.45
loop_
_atom_site_label
_atom_site_type_symbol
_atom_site_fract_x
_atom_site_fract_y
_atom_site_fract_z
N1 N 0.0797(2) 0.1691(2) 0.4980(2)
C1 C 0.1757(3) 0.1846(3) 0.4947(2)
C2 C 0.2403(3) 0.1321(3) 0.5428(2)
C3 C 0.2024(3) 0.0603(3) 0.5938(3)
C4 C 0.1055(3) 0.0443(3) 0.5971(3)
C5 C 0.0452(3) 0.1010(3) 0.5487(3)
C6 C 0.2050(3) 0.2601(3) 0.4322(2)
C7 C 0.3491(3) 0.1451(3) 0.5427(3)
H1 H 0.24560 0.02000 0.62590
H2 H 0.07890 -0.00620 0.63290
H3 H -0.02500 0.09180 0.55220
Zn1 Zn 0.00000 0.25000 0.40655(5)
O1 O 0.1371(2) 0.3104(2) 0.4013(2)
O2 O 0.2914(2) 0.2678(2) 0.4154(2)
O3 O 0.3837(2) 0.2224(2) 0.5724(2)
O4 O 0.3950(2) 0.0763(2) 0.5178(2)
K1 K 0.42099(7) -0.11115(7) 0.52133(7)
N1F N -0.0797(2) 0.3309(2) 0.4980(2)
C1F C -0.1757(3) 0.3154(3) 0.4947(2)
C2F C -0.2403(3) 0.3679(3) 0.5428(2)
C3F C -0.2024(3) 0.4397(3) 0.5938(3)
C4F C -0.1055(3) 0.4557(3) 0.5971(3)
C5F C -0.0452(3) 0.3990(3) 0.5487(3)
H3F H 0.02500 0.40820 0.55220
H2F H -0.07890 0.50620 0.63290
H1F H -0.24560 0.48000 0.62590
C7F C -0.3491(3) 0.3549(3) 0.5427(3)
O3F O -0.3837(2) 0.2776(2) 0.5724(2)
Zn1G Zn -0.50000 0.25000 0.65655(5)
Zn1A Zn 0.50000 0.25000 0.65655(5)
O4F O -0.3950(2) 0.4237(2) 0.5178(2)
C6F C -0.2050(3) 0.2399(3) 0.4322(2)
O1F O -0.1371(2) 0.1896(2) 0.4013(2)
O2F O -0.2914(2) 0.2322(2) 0.4154(2)
O3C O -0.0276(2) 0.3663(2) 0.3224(2)
O3E O 0.0276(2) 0.1337(2) 0.3224(2)
#END
