
#######################################################################
#
#                 Cambridge Crystallographic Data Centre
#                                CCDC
#
#######################################################################
#
# If this CIF has been generated from an entry in the Cambridge
# Structural Database, then it will include bibliographic, chemical,
# crystal, experimental, refinement or atomic coordinate data resulting
# from the CCDC's data processing and validation procedures.
#
#######################################################################

data_CSD_CIF_ZIHGIG
_audit_creation_date 1996-06-14
_audit_creation_method CSD-ConQuest-V1
_database_code_CSD ZIHGIG
_chemical_formula_sum 'C31 H83 N4 Na1 O22.5 P3'
_chemical_formula_moiety
;
(C7 H18 Na1 O18 P3 4-)n,4n(C6 H14 N1 1+),4.5n(H2 O1)
;
_journal_coden_Cambridge 182
_journal_year 1995
_journal_page_first 2219
_journal_name_full 'Chem.Commun. '
loop_
_publ_author_name
"I.D.Spiers"
"S.Freeman"
"C.H.Schwalbe"
_chemical_name_systematic
;
catena-(tetrakis(Cyclohexylammonium) 
bis(\m~2~-aqua)-aqua-(\m~2~-myo-inositol-1,2,3-triphosphato-O,O')-(methanol)-s
odium hydrate)
;
_chemical_melting_point 438.15
_cell_volume   2453.638
_exptl_crystal_colour 'colorless'
_exptl_crystal_density_diffrn 1.336
_exptl_special_details
;
Melting point range 438.15-439.65K
myo-inositol 1,2,3-triphosphate has antioxidant activity, is able to chelate 
iron and acts as a siderophore in promoting iron-uptake into Pseudomonas 
aeruginosa
;
_diffrn_ambient_temperature ?
_diffrn_special_details
;
The study was carried out at room temperature,in the range 283-303K

;
_refine_special_details
;
One cyclohexylammonium ion is disordered, having two half- occupied rings 
with three of the ring C-atoms having different positions. One of the water 
molecules is half-occupied.
;
#These two values have been output from a single CSD field.
_refine_ls_R_factor_gt 0.0704
_refine_ls_wR_factor_gt 0.0704
_symmetry_cell_setting triclinic
_symmetry_space_group_name_H-M 'P -1'
_symmetry_Int_Tables_number 2
loop_
_symmetry_equiv_pos_site_id
_symmetry_equiv_pos_as_xyz
1 x,y,z
2 -x,-y,-z
_cell_length_a 12.355(2)
_cell_length_b 14.803(2)
_cell_length_c 15.101(2)
_cell_angle_alpha 102.90(1)
_cell_angle_beta 112.570(13)
_cell_angle_gamma 93.380(11)
_cell_formula_units_Z 2
loop_
_atom_type_symbol
_atom_type_radius_bond
C 0.68
H 0.23
N 0.68
Na 1.59
O 0.68
P 1.05
loop_
_atom_site_label
_atom_site_type_symbol
_atom_site_fract_x
_atom_site_fract_y
_atom_site_fract_z
C1 C -0.7093(4) 0.0676(4) 0.3245(4)
C2 C -0.6234(4) 0.0500(4) 0.2749(3)
C3 C -0.5294(4) -0.0017(4) 0.3325(4)
C4 C -0.5850(5) -0.0943(4) 0.3381(4)
C5 C -0.6701(5) -0.0747(4) 0.3868(4)
C6 C -0.7670(4) -0.0231(4) 0.3318(4)
H1 H -0.4871(4) 0.0383(4) 0.4006(4)
H2 H -0.5849(4) 0.1102(4) 0.2759(3)
H3 H -0.6655(4) 0.1087(4) 0.3918(4)
H4 H -0.8132(4) -0.0631(4) 0.2643(4)
H5 H -0.6249(5) -0.0345(4) 0.4544(4)
H6 H -0.6281(5) -0.1356(4) 0.2708(4)
O1 O -0.4462(3) -0.0143(3) 0.2885(2)
O2 O -0.6852(3) -0.0056(2) 0.1737(2)
O3 O -0.8025(3) 0.1134(3) 0.2700(3)
O4 O 0.1556(4) -0.0042(4) 0.3797(4)
H7 H 0.1839(65) 0.0013(53) 0.4285(53)
O5 O -0.7196(4) -0.1596(3) 0.3945(4)
H8 H -0.7204(52) -0.1450(41) 0.4430(4)
O6 O -0.4972(4) -0.1404(3) 0.3959(3)
H9 H -0.432(1) -0.1205(36) 0.3993(45)
P1 P -0.30447(13) 0.00450(11) 0.35629(10)
P2 P -0.71077(12) 0.03794(11) 0.07961(10)
P3 P -0.78764(14) 0.22600(11) 0.29830(12)
O7 O -0.2820(3) -0.0667(3) 0.4171(3)
O8 O -0.2708(3) 0.1035(3) 0.4225(3)
O9 O -0.2544(3) -0.0124(3) 0.2783(3)
O10 O -0.6783(4) 0.1437(3) 0.1173(3)
O11 O -0.8416(4) 0.0075(3) 0.0160(3)
O12 O -0.6366(4) -0.0041(3) 0.0277(3)
O13 O -0.7449(4) 0.2643(3) 0.4078(3)
O14 O -0.9058(4) 0.2438(3) 0.2327(3)
O15 O -0.6876(4) 0.2573(3) 0.2677(4)
H10 H -0.6986(56) 0.2229(47) 0.2066(50)
C7 C -0.0063(5) 0.2041(4) -0.037(4)
H11 H -0.0015(5) 0.1696(4) -0.0988(4)
C8 C 0.0894(6) 0.2895(5) 0.0111(6)
H12 H 0.1664(6) 0.2702(5) 0.0231(6)
H13 H 0.0898(6) 0.3218(5) 0.0747(6)
C9 C 0.0674(7) 0.3563(6) -0.0563(6)
H14 H 0.1263(7) 0.4127(6) -0.0228(6)
H15 H 0.0752(7) 0.3262(6) -0.1171(6)
C10 C -0.0555(7) 0.3820(6) -0.0813(7)
H16 H -0.0695(7) 0.4221(6) -0.1261(7)
H17 H -0.0609(7) 0.4168(6) -0.0210(7)
C11 C -0.1492(7) 0.2949(5) -0.1297(6)
H18 H -0.2271(7) 0.3128(5) -0.1435(6)
H19 H -0.1474(7) 0.2623(5) -0.1923(6)
C12 C -0.1274(6) 0.2305(5) -0.0624(5)
H20 H -0.1348(6) 0.2616(5) -0.0017(5)
H21 H -0.1867(6) 0.1743(5) -0.0951(5)
N1 N 0.0147(4) 0.1425(4) 0.0308(4)
H22 H 0.0869(4) 0.1271(4) 0.0454(4)
H23 H -0.0394(4) 0.0907(4) 0.0014(4)
H24 H 0.0091(4) 0.1728(4) 0.0865(4)
C13 C 0.4693(6) 0.1981(4) -0.0568(5)
H25 H 0.5246(6) 0.2203(4) 0.0134(5)
C14 C 0.5290(6) 0.2272(5) -0.1190(6)
H26 H 0.4777(6) 0.2025(5) -0.1891(6)
H27 H 0.6027(6) 0.2021(5) -0.1061(6)
C15 C 0.5545(8) 0.3354(6) -0.0921(7)
H28 H 0.6112(8) 0.3592(6) -0.0235(7)
H29 H 0.5895(8) 0.3545(6) -0.1340(7)
C16 C 0.4443(9) 0.3764(6) -0.1058(8)
H30 H 0.3899(9) 0.3564(6) -0.1754(8)
H31 H 0.4634(9) 0.4443(6) -0.0866(8)
C17 C 0.3860(11) 0.3467(7) -0.045(1)
H32 H 0.3128(11) 0.3724(7) -0.0571(10)
H33 H 0.4377(11) 0.3712(7) 0.025(1)
C18 C 0.3590(7) 0.2408(5) -0.0702(7)
H34 H 0.3243(7) 0.2230(5) -0.0276(7)
H35 H 0.3015(7) 0.2168(5) -0.1386(7)
N2 N 0.4406(4) 0.0942(3) -0.0833(3)
H36 H 0.5067(4) 0.0696(3) -0.0751(3)
H37 H 0.3889(4) 0.0731(3) -0.1465(3)
H38 H 0.4091(4) 0.0776(3) -0.0442(3)
C19 C 0.5446(6) 0.3912(4) 0.5808(5)
H39 H 0.5322(6) 0.4344(4) 0.5384(5)
C20 C 0.6749(8) 0.4033(6) 0.6447(7)
H40 H 0.7184(8) 0.3902(6) 0.6030(7)
H41 H 0.6891(8) 0.3594(6) 0.6855(7)
C21 C 0.7185(9) 0.5052(6) 0.7122(9)
H42 H 0.8017(9) 0.5121(6) 0.7560(9)
H43 H 0.7106(9) 0.5485(6) 0.6713(9)
C22 C 0.6472(12) 0.5282(7) 0.7732(7)
H44 H 0.6602(12) 0.4881(7) 0.8179(7)
H45 H 0.6736(12) 0.5928(7) 0.8133(7)
C23 C 0.5187(11) 0.5148(8) 0.7083(9)
H46 H 0.5047(11) 0.5582(8) 0.6670(9)
H47 H 0.4739(11) 0.5277(8) 0.7489(9)
C24 C 0.4770(9) 0.4131(7) 0.6419(7)
H48 H 0.4873(9) 0.3701(7) 0.6833(7)
H49 H 0.3933(9) 0.4050(7) 0.5991(7)
N3 N 0.5019(5) 0.2927(3) 0.5154(4)
H50 H 0.5436(5) 0.2802(3) 0.4787(4)
H51 H 0.4253(5) 0.2865(3) 0.4757(4)
H52 H 0.5113(5) 0.2528(3) 0.5530(4)
C25 C -0.1193(11) 0.3575(7) 0.2872(8)
H53 H -0.1859(11) 0.3632(7) 0.3071(8)
C26 C -0.1541(14) 0.3757(8) 0.1906(9)
H54 H -0.2140(14) 0.3243(8) 0.1410(9)
H55 H -0.0857(14) 0.3777(8) 0.1739(9)
C27 C -0.2033(21) 0.4679(11) 0.1859(15)
H56 H -0.2692(21) 0.4685(11) 0.2057(15)
C28 C -0.1089(39) 0.5445(30) 0.2526(24)
H57 H -0.1397(39) 0.6034(30) 0.2564(24)
H58 H -0.0474(39) 0.5486(30) 0.2280(24)
C29 C -0.0579(36) 0.5273(16) 0.3542(19)
H59 H -0.1160(36) 0.5353(16) 0.3828(19)
H60 H 0.0116(36) 0.5743(16) 0.3964(19)
C30 C -0.0229(19) 0.4305(12) 0.3548(17)
H61 H 0.0440(19) 0.4254(12) 0.3364(17)
H62 H 0.0019(19) 0.4228(12) 0.4216(17)
C31? C -0.1170(48) 0.5445(22) 0.2687(29)
H63? H -0.1280(48) 0.6068(22) 0.2601(29)
H64? H -0.0348(48) 0.5359(22) 0.2865(29)
C32? C -0.1700(43) 0.5162(21) 0.3344(42)
H65? H -0.2558(43) 0.5054(21) 0.2998(42)
H66? H -0.1482(43) 0.5677(21) 0.3938(42)
C33? C -0.1299(58) 0.4273(30) 0.3657(23)
H67? H -0.0538(58) 0.4449(30) 0.4225(23)
H68? H -0.1868(58) 0.4002(30) 0.3863(23)
N4 N -0.0894(6) 0.2651(5) 0.2866(5)
H69 H -0.0687(6) 0.2659(5) 0.3472(5)
H70 H -0.0291(6) 0.2588(5) 0.2685(5)
H71 H -0.1520(6) 0.2224(5) 0.2436(5)
Na1 Na -0.0545(2) -0.0222(3) 0.3209(2)
O16 O 0.2829(5) -0.1194(4) -0.1641(4)
H72 H 0.2656(79) -0.0891(62) -0.2005(67)
H73 H 0.3081(71) -0.0876(57) -0.0923(68)
O17 O 0.5544(5) 0.2353(4) 0.1959(4)
H74 H 0.4945(86) 0.2197(72) 0.1679(74)
H75 H 0.5895(82) 0.1925(65) 0.1687(68)
O18 O -0.0422(4) 0.0101(4) 0.1852(3)
H76 H 0.03900 0.02000 0.19170
H77 H -0.08650 0.02000 0.12700
O19 O 0.6288(6) 0.2617(4) 0.3989(4)
H78 H 0.6074(88) 0.255(7) 0.3360(76)
H79 H 0.6591(88) 0.2083(71) 0.4046(73)
O20 O 0.8237(6) -0.2228(5) 0.4411(6)
H80 H 0.84590 -0.20000 0.38180
H81 H 0.75990 -0.18000 0.42260
O21 O -0.0364(19) -0.1889(8) 0.3133(8)
H82 H -0.12230 -0.20000 0.29760
H83? H 0.97600 0.84000 0.28190
O22 O 0.00000 0.00000 0.50000
H84 H 0.00000 0.06000 0.50260
C34 C -0.0682(13) 0.2388(11) 0.4714(11)
H85 H 0.0061(13) 0.2746(11) 0.5208(11)
H86 H -0.1215(13) 0.2299(11) 0.5023(11)
H87 H -0.1023(13) 0.2719(11) 0.4219(11)
O23 O -0.0491(10) 0.1501(8) 0.4257(8)
H88 H -0.05640 0.14820 0.36860
O4* O -0.8444(4) -0.0042(4) 0.3797(4)
H7* H -0.8161(65) 0.0013(53) 0.4285(53)
Na1* Na -1.0545(2) -0.0222(3) 0.3209(2)
Na1A Na 0.0545(2) 0.0222(3) 0.6791(2)
H84A H 0.00000 -0.06000 0.49740
#END
