
#######################################################################
#
#                 Cambridge Crystallographic Data Centre
#                                CCDC
#
#######################################################################
#
# If this CIF has been generated from an entry in the Cambridge
# Structural Database, then it will include bibliographic, chemical,
# crystal, experimental, refinement or atomic coordinate data resulting
# from the CCDC's data processing and validation procedures.
#
#######################################################################

data_CSD_CIF_ZIJQOA
_audit_creation_date 2013-08-20
_audit_creation_method CSD-ConQuest-V1
_database_code_CSD ZIJQOA
_database_code_depnum_ccdc_archive 'CCDC 912980'
_chemical_formula_sum 'C24 H24 Ag3 N10 O42 P1 W12'
_chemical_formula_moiety
;
(C12 H12 Ag2 N8 2+)n,n(C12 H8 Ag1 N2 1+),2n(H2 O1),n(O40 P1 W12 3-)
;
_journal_coden_Cambridge 1350
_journal_volume 15
_journal_year 2013
_journal_page_first 7583
_journal_name_full 'CrystEngComm '
loop_
_publ_author_name
"Zhen-yu Shi"
"Jun Peng"
"Yang-guang Li"
"Zhe-yu Zhang"
"Xia Yu"
"K.Alimaje"
"Xiang Wang"
_chemical_name_systematic
;
catena-(bis(\m~2~-2,2'-Bi-imidazole)-di-silver (\m~2~-phenazine)-silver 
(\m~12~-phosphato)-tetracosakis(\m~2~-oxo)-dodecaoxo-dodeca-tungsten 
dihydrate)
;
_cell_volume   5806.387
_exptl_crystal_colour 'red'
_exptl_crystal_density_diffrn 4.213
_exptl_crystal_description 'block'
_diffrn_ambient_temperature 293
_refine_special_details
;
O1,O18,O1W,O2,O3,O6,O8 and O1',O18',O1W',O2',O3',O6',O8' disordered over two 
sites with occupancies 0.50:0.50; O19,O20,O21,O22 disordered by symmetry over 
two sites with occupancy 0.50.
;
#These two values have been output from a single CSD field.
_refine_ls_R_factor_gt 0.0531
_refine_ls_wR_factor_gt 0.0531
_symmetry_cell_setting tetragonal
_symmetry_space_group_name_H-M 'P 42/n'
_symmetry_Int_Tables_number 86
loop_
_symmetry_equiv_pos_site_id
_symmetry_equiv_pos_as_xyz
1 x,y,z
2 1/2-x,1/2-y,z
3 -y,1/2+x,1/2+z
4 1/2+y,-x,1/2+z
5 -x,-y,-z
6 -1/2+x,-1/2+y,-z
7 y,-1/2-x,-1/2-z
8 -1/2-y,x,-1/2-z
_cell_length_a 20.222(5)
_cell_length_b 20.222(5)
_cell_length_c 14.199(5)
_cell_angle_alpha 90
_cell_angle_beta 90
_cell_angle_gamma 90
_cell_formula_units_Z 4
loop_
_atom_type_symbol
_atom_type_radius_bond
C 0.68
H 0.23
Ag 1.45
N 0.68
O 0.68
P 1.05
W 1.62
loop_
_atom_site_label
_atom_site_type_symbol
_atom_site_fract_x
_atom_site_fract_y
_atom_site_fract_z
W1 W 0.99651(5) 1.13492(4) 0.16176(5)
W2 W 0.84929(4) 0.93558(4) -0.09281(5)
W3 W 0.94269(5) 0.84092(4) 0.07078(5)
W4 W 0.93726(4) 0.97579(4) 0.23145(5)
W5 W 0.84619(4) 1.07238(4) 0.06569(5)
W6 W 0.90741(4) 1.09409(4) -0.16699(5)
P1 P 1.00000 1.00000 0.00000
O1 O 0.8507(12) 1.0221(12) 0.1835(17)
O2 O 0.8920(13) 1.1360(12) 0.1320(16)
O3 O 1.0994(12) 1.1229(12) 0.1741(16)
O4 O 1.0067(12) 1.1660(12) 0.0406(16)
O5 O 0.9617(12) 1.0665(12) 0.2549(17)
O6 O 0.8551(12) 0.8587(12) -0.0021(16)
O7 O 0.8651(10) 1.1383(8) -0.2457(10)
O8 O 1.0283(7) 0.8446(7) 0.1261(11)
O9 O 0.8613(7) 1.1117(6) -0.0531(9)
O10 O 0.7727(7) 1.1060(7) 0.0975(11)
O11 O 0.9143(7) 0.8950(7) 0.1737(11)
O12 O 0.9078(7) 0.9654(8) 0.3405(9)
O13 O 0.8638(7) 1.0109(7) -0.1703(9)
O14 O 1.0256(7) 0.9431(7) 0.2430(12)
O15 O 0.9163(7) 0.7665(6) 0.1034(9)
O16 O 0.7774(7) 0.9056(8) -0.1360(9)
O17 O 0.9927(7) 1.1984(6) 0.2362(9)
O18 O 0.8199(7) 0.9948(6) 0.0002(8)
O19 O 1.0631(11) 0.9807(12) 0.0326(14)
O20 O 0.9560(11) 1.0314(10) 0.0802(13)
O21 O 0.9584(10) 0.9341(10) -0.0322(14)
O22 O 0.9975(11) 1.0467(11) -0.0840(14)
Ag1 Ag 0.25000 0.75000 0.30548(16)
C1 C 0.3052(11) 0.7652(9) 0.1039(12)
C2 C 0.3631(13) 0.7843(11) 0.1520(18)
H1 H 0.36280 0.78710 0.21740
C3 C 0.4172(14) 0.7980(11) 0.106(2)
H2 H 0.45570 0.80890 0.13780
C4 C 0.4164(16) 0.7962(12) 0.001(2)
H3 H 0.45550 0.80480 -0.03120
C5 C 0.3621(13) 0.7828(11) -0.0477(19)
C6 C 0.3043(11) 0.7667(9) 0.0065(12)
N1 N 0.25000 0.75000 0.1530(13)
N2 N 0.25000 0.75000 -0.0412(14)
Ag2 Ag 0.75000 0.75000 0.12197(16)
C7 C 0.7189(13) 0.9539(17) 0.1651(19)
H4 H 0.72490 0.99350 0.19710
C8 C 0.6848(15) 0.8817(17) 0.063(2)
C9 C 0.7462(10) 0.8947(18) 0.1852(16)
H5 H 0.77540 0.88560 0.23410
N3 N 0.6808(9) 0.9430(13) 0.0874(14)
H6 H 0.65750 0.97250 0.05900
N4 N 0.7232(9) 0.8513(11) 0.1218(13)
Ag3 Ag 0.75000 0.75000 -0.07511(18)
C10 C 0.6107(13) 0.8008(11) -0.1345(16)
H7 H 0.60850 0.76790 -0.18020
N5 N 0.6569(11) 0.8067(12) -0.0699(17)
C11 C 0.6431(12) 0.8590(12) -0.0187(14)
N6 N 0.5884(12) 0.8854(10) -0.0516(16)
H8 H 0.56910 0.92010 -0.03000
C12 C 0.5684(11) 0.8494(13) -0.1232(16)
H9 H 0.53090 0.85710 -0.15940
O23 O -0.035(2) 0.123(3) -0.538(3)
O24? O 0.8800(12) 1.0122(12) 0.1560(16)
O25? O 0.9233(12) 1.1271(12) 0.1041(17)
O26? O 1.0733(12) 1.0931(12) 0.1593(16)
O27? O 1.0313(12) 1.1928(12) 0.0546(17)
O28? O 0.9886(12) 1.0571(12) 0.2222(17)
O29? O 0.8821(12) 0.8864(12) 0.0067(16)
O30? O -0.057(2) 0.180(3) -0.575(3)
O19D O 0.9369(11) 1.0193(12) -0.0326(14)
O20D O 1.0440(11) 0.9686(10) -0.0802(13)
O21D O 1.0416(10) 1.0659(10) 0.0322(14)
O22D O 1.0025(11) 0.9533(11) 0.0840(14)
W1D W 1.00349(5) 0.86508(4) -0.16176(5)
W2D W 1.15071(4) 1.06442(4) 0.09281(5)
W3D W 1.05731(5) 1.15908(4) -0.07078(5)
W4D W 1.06274(4) 1.02421(4) -0.23145(5)
W5D W 1.15381(4) 0.92762(4) -0.06569(5)
W6D W 1.09259(4) 0.90591(4) 0.16699(5)
O1D O 1.1493(12) 0.9779(12) -0.1835(17)
O2D O 1.1080(13) 0.8640(12) -0.1320(16)
O3D O 0.9006(12) 0.8771(12) -0.1741(16)
O4D O 0.9933(12) 0.8340(12) -0.0406(16)
O5D O 1.0383(12) 0.9335(12) -0.2549(17)
O6D O 1.1449(12) 1.1413(12) 0.0021(16)
O7D O 1.1349(10) 0.8617(8) 0.2457(10)
O8D O 0.9717(7) 1.1554(7) -0.1261(11)
O9D O 1.1387(7) 0.8883(6) 0.0531(9)
O10D O 1.2273(7) 0.8940(7) -0.0975(11)
O11D O 1.0857(7) 1.1050(7) -0.1737(11)
O12D O 1.0922(7) 1.0346(8) -0.3405(9)
O13D O 1.1362(7) 0.9891(7) 0.1703(9)
O14D O 0.9744(7) 1.0569(7) -0.2430(12)
O15D O 1.0837(7) 1.2335(6) -0.1034(9)
O16D O 1.2226(7) 1.0944(8) 0.1360(9)
O17D O 1.0073(7) 0.8016(6) -0.2362(9)
O18D O 1.1801(7) 1.0052(6) -0.0002(8)
C1A C 0.1948(11) 0.7348(9) 0.1039(12)
C2A C 0.1369(13) 0.7157(11) 0.1520(18)
H1A H 0.13720 0.71290 0.21740
C3A C 0.0828(14) 0.7020(11) 0.106(2)
H2A H 0.04430 0.69110 0.13780
C4A C 0.0836(16) 0.7038(12) 0.001(2)
H3A H 0.04450 0.69520 -0.03120
C5A C 0.1379(13) 0.7172(11) -0.0477(19)
C6A C 0.1957(11) 0.7333(9) 0.0065(12)
Ag1B Ag 0.25000 0.75000 -0.19452(16)
N2B N 0.25000 0.75000 0.4588(14)
C7A C 0.7811(13) 0.5461(17) 0.1651(19)
H4A H 0.77510 0.50650 0.19710
C8A C 0.8152(15) 0.6183(17) 0.063(2)
C9A C 0.7538(10) 0.6053(18) 0.1852(16)
H5A H 0.72460 0.61440 0.23410
N3A N 0.8192(9) 0.5570(13) 0.0874(14)
H6A H 0.84250 0.52750 0.05900
N4A N 0.7768(9) 0.6487(11) 0.1218(13)
C10A C 0.8893(13) 0.6992(11) -0.1345(16)
H7A H 0.89150 0.73210 -0.18020
N5A N 0.8431(11) 0.6933(12) -0.0699(17)
C11A C 0.8569(12) 0.6410(12) -0.0187(14)
N6A N 0.9116(12) 0.6146(10) -0.0516(16)
H8A H 0.93090 0.57990 -0.03000
C12A C 0.9316(11) 0.6506(13) -0.1232(16)
H9A H 0.96910 0.64290 -0.15940
#END
