
#######################################################################
#
#                 Cambridge Crystallographic Data Centre
#                                CCDC
#
#######################################################################
#
# If this CIF has been generated from an entry in the Cambridge
# Structural Database, then it will include bibliographic, chemical,
# crystal, experimental, refinement or atomic coordinate data resulting
# from the CCDC's data processing and validation procedures.
#
#######################################################################

data_CSD_CIF_ZIKGEI
_audit_creation_date 2018-08-22
_audit_creation_method CSD-ConQuest-V1
_database_code_CSD ZIKGEI
_database_code_depnum_ccdc_archive 'CCDC 1580838'
_chemical_formula_sum 'C46 H52 N14 O26 S2 Zn3'
_chemical_formula_moiety
;
4(C2 H8 N1 1+),n(C38 H20 N10 O26 S2 Zn3 4-)
;
_journal_coden_Cambridge 1147
_journal_volume 18
_journal_year 2018
_journal_page_first 5573
_journal_name_full 'Cryst.Growth Des. '
loop_
_publ_author_name
"Hongming He"
"Qian-Qian Zhu"
"Fuxing Sun"
"Guangshan Zhu"
_chemical_name_systematic
;
catena-[tetrakis(dimethylammonium) 
bis(\m-5-{[4-(3-carboxy-5-carboxylatoanilino)-6-hydroxy-1,3,5-triazin-2-yl]ami
no}benzene-1,3-dicarboxylato)-bis(\m-sulfato)-tri-zinc(ii)]
;
_cell_volume   7422.512
_exptl_crystal_colour 'colorless'
_diffrn_ambient_temperature 100
_refine_special_details
;
The SQUEEZE/PLATON program has been used to model some disordered cations.

;
#These two values have been output from a single CSD field.
_refine_ls_R_factor_gt 0.0742
_refine_ls_wR_factor_gt 0.0742
_symmetry_cell_setting monoclinic
_symmetry_space_group_name_H-M 'C 2/c'
_symmetry_Int_Tables_number 15
loop_
_symmetry_equiv_pos_site_id
_symmetry_equiv_pos_as_xyz
1 x,y,z
2 -x,y,1/2-z
3 1/2+x,1/2+y,z
4 1/2-x,1/2+y,1/2-z
5 -x,-y,-z
6 x,-y,-1/2+z
7 -1/2-x,-1/2-y,-z
8 -1/2+x,-1/2-y,-1/2+z
_cell_length_a 30.5668(7)
_cell_length_b 11.8581(3)
_cell_length_c 21.7723(5)
_cell_angle_alpha 90
_cell_angle_beta 109.856(1)
_cell_angle_gamma 90
_cell_formula_units_Z 4
loop_
_atom_type_symbol
_atom_type_radius_bond
C 0.68
H 0.23
N 0.68
O 0.68
S 1.02
Zn 1.22
loop_
_atom_site_label
_atom_site_type_symbol
_atom_site_fract_x
_atom_site_fract_y
_atom_site_fract_z
C1 C 1.02582(15) 0.3467(4) 1.0647(2)
C2 C 0.99461(14) 0.4395(4) 1.0710(2)
C3 C 1.01251(14) 0.5291(4) 1.1124(2)
H1 H 1.04420 0.53240 1.13600
C4 C 0.98316(14) 0.6143(4) 1.1187(2)
C5 C 0.93622(14) 0.6110(4) 1.0818(2)
H2 H 0.91670 0.66930 1.08500
C6 C 0.91791(13) 0.5194(4) 1.03946(19)
C7 C 0.94737(14) 0.4329(4) 1.0357(2)
H3 H 0.93550 0.37040 1.00950
C8 C 1.00244(15) 0.7075(4) 1.1685(2)
C9 C 0.84312(13) 0.4617(3) 0.95510(19)
C10 C 0.82975(16) 0.3099(4) 0.8893(2)
C11 C 0.77098(13) 0.4311(3) 0.87865(19)
C12 C 0.69103(13) 0.4242(3) 0.79463(19)
C13 C 0.64609(13) 0.4611(3) 0.78572(19)
H4 H 0.64020 0.50240 0.81840
C14 C 0.60978(13) 0.4364(3) 0.72790(19)
C15 C 0.61818(13) 0.3732(3) 0.6789(2)
H5 H 0.59410 0.35680 0.64040
C16 C 0.69905(13) 0.3607(3) 0.74554(19)
H6 H 0.72890 0.33510 0.75120
C17 C 0.66305(14) 0.3351(3) 0.68845(19)
C18 C 0.67323(14) 0.2705(3) 0.63612(19)
C19 C 0.56174(13) 0.4837(3) 0.7168(2)
N1 N 0.79845(11) 0.5012(3) 0.92485(16)
N2 N 0.78439(13) 0.3354(3) 0.8596(2)
N3 N 0.85998(12) 0.3691(3) 0.93890(18)
N4 N 0.86985(11) 0.5251(3) 1.00443(17)
H7 H 0.85540 0.57780 1.01670
N5 N 0.72605(11) 0.4643(3) 0.85093(17)
H8 H 0.71770 0.51830 0.87090
O1 O 1.01202(12) 0.2598(3) 1.03650(18)
O2 O 1.07071(10) 0.3716(3) 1.09408(16)
O3 O 1.04245(12) 0.6977(4) 1.2070(2)
O4 O 0.97542(10) 0.7872(3) 1.16958(15)
O5 O 0.53163(10) 0.4743(3) 0.66194(16)
O6 O 0.55596(9) 0.5317(3) 0.76629(14)
O7 O 0.71597(10) 0.2477(3) 0.64573(14)
O8 O 0.64113(10) 0.2408(3) 0.58587(13)
O9 O 0.81108(9) 0.7064(2) 1.02257(13)
O10 O 0.78720(9) 0.8366(3) 1.08906(14)
O11 O 0.86461(10) 0.8435(3) 1.08831(17)
O12 O 0.80095(13) 0.9028(3) 0.99118(18)
O13 O 0.84740(16) 0.2163(4) 0.8652(2)
H9 H 0.85980 0.23800 0.83940
S1 S 0.81657(3) 0.82701(8) 1.04588(5)
Zn1 Zn 0.50000 0.62347(6) 0.75000
Zn2 Zn 0.780850(16) 0.66736(4) 0.93080(2)
C1A C -0.02582(15) 0.3467(4) 0.4353(2)
C2A C 0.00539(14) 0.4395(4) 0.4290(2)
C3A C -0.01251(14) 0.5291(4) 0.3876(2)
H1A H -0.04420 0.53240 0.36400
C4A C 0.01684(14) 0.6143(4) 0.3813(2)
C5A C 0.06378(14) 0.6110(4) 0.4182(2)
H2A H 0.08330 0.66930 0.41500
C6A C 0.08209(13) 0.5194(4) 0.46054(19)
C7A C 0.05263(14) 0.4329(4) 0.4643(2)
H3A H 0.06450 0.37040 0.49050
C8A C -0.00244(15) 0.7075(4) 0.3315(2)
C9A C 0.15688(13) 0.4617(3) 0.54490(19)
C10A C 0.17025(16) 0.3099(4) 0.6107(2)
C11A C 0.22902(13) 0.4311(3) 0.62135(19)
C12A C 0.30897(13) 0.4242(3) 0.70537(19)
C13A C 0.35391(13) 0.4611(3) 0.71428(19)
H4A H 0.35980 0.50240 0.68160
C14A C 0.39022(13) 0.4364(3) 0.77210(19)
C15A C 0.38182(13) 0.3732(3) 0.8211(2)
H5A H 0.40590 0.35680 0.85960
C16A C 0.30095(13) 0.3607(3) 0.75446(19)
H6A H 0.27110 0.33510 0.74880
C17A C 0.33695(14) 0.3351(3) 0.81155(19)
C18A C 0.32677(14) 0.2705(3) 0.86388(19)
C19A C 0.43826(13) 0.4837(3) 0.7832(2)
N1A N 0.20155(11) 0.5012(3) 0.57515(16)
N2A N 0.21561(13) 0.3354(3) 0.6404(2)
N3A N 0.14002(12) 0.3691(3) 0.56110(18)
N4A N 0.13015(11) 0.5251(3) 0.49557(17)
H7A H 0.14460 0.57780 0.48330
N5A N 0.27395(11) 0.4643(3) 0.64907(17)
H8A H 0.28230 0.51830 0.62910
O1A O -0.01202(12) 0.2598(3) 0.46350(18)
O2A O -0.07071(10) 0.3716(3) 0.40592(16)
O3A O -0.04245(12) 0.6977(4) 0.2930(2)
O4A O 0.02458(10) 0.7872(3) 0.33042(15)
O5A O 0.46837(10) 0.4743(3) 0.83806(16)
O6A O 0.44404(9) 0.5317(3) 0.73371(14)
O7A O 0.28403(10) 0.2477(3) 0.85427(14)
O8A O 0.35887(10) 0.2408(3) 0.91413(13)
O9A O 0.18892(9) 0.7064(2) 0.47743(13)
O10A O 0.21280(9) 0.8366(3) 0.41094(14)
O11A O 0.13539(10) 0.8435(3) 0.41169(17)
O12A O 0.19905(13) 0.9028(3) 0.50882(18)
O13A O 0.15260(16) 0.2163(4) 0.6348(2)
H9A H 0.14020 0.23800 0.66060
S1A S 0.18343(3) 0.82701(8) 0.45412(5)
Zn2A Zn 0.219150(16) 0.66736(4) 0.56920(2)
O4F O 0.52458(10) 0.7128(3) 0.83042(15)
O4G O 0.47542(10) 0.7128(3) 0.66958(15)
O7B O 0.21597(10) 0.7477(3) 0.64573(14)
O7C O 0.78403(10) 0.7477(3) 0.85427(14)
O10F O 0.71280(9) 0.6634(3) 0.91094(14)
O10G O 0.28720(9) 0.6634(3) 0.58906(14)
Zn1F Zn 0.00000 0.87653(6) 0.25000
Zn1F* Zn 1.00000 0.87653(6) 1.25000
Zn2B Zn 0.280850(16) 0.16736(4) 0.93080(2)
Zn2C Zn 0.719150(16) 0.16736(4) 0.56920(2)
Zn2F Zn 0.719150(16) 0.83264(4) 1.06920(2)
Zn2G Zn 0.280850(16) 0.83264(4) 0.43080(2)
#END
