
#######################################################################
#
#                 Cambridge Crystallographic Data Centre
#                                CCDC
#
#######################################################################
#
# If this CIF has been generated from an entry in the Cambridge
# Structural Database, then it will include bibliographic, chemical,
# crystal, experimental, refinement or atomic coordinate data resulting
# from the CCDC's data processing and validation procedures.
#
#######################################################################

data_CSD_CIF_ZILZAX
_audit_creation_date 2013-08-21
_audit_creation_method CSD-ConQuest-V1
_database_code_CSD ZILZAX
_database_code_depnum_ccdc_archive 'CCDC 798971'
_chemical_formula_sum 'C52 H40 N4 O23 Tm2'
_chemical_formula_moiety
;
(C32 H16 O20 Tm2 2-)n,2n(C10 H9 N2 1+),3n(H2 O1)
;
_journal_coden_Cambridge 211
_journal_volume 66
_journal_year 2013
_journal_page_first 2659
_journal_name_full 'J.Coord.Chem. '
loop_
_publ_author_name
"Fen Zhang"
"Xiao-Ting Huang"
"Yuan-Yuan Tian"
"Ying-Xin Gong"
"Xue-Yun Chen"
"Jing-Jun Lin"
"Dong-Sheng Lu"
"Yan-Lin Zhang"
"Rong-Hua Zeng"
"Sheng-Run Zheng"
_chemical_name_systematic
;
catena-(bis(2-(2-Pyridyl)pyridinium) 
bis(\m~3~-5-hydroxyisophthalato)-bis(\m~2~-5-hydroxyisophthalato)-di-thulium 
trihydrate)
;
_cell_volume   2503.306
_exptl_crystal_density_diffrn 1.893
_diffrn_ambient_temperature 296
#These two values have been output from a single CSD field.
_refine_ls_R_factor_gt 0.0744
_refine_ls_wR_factor_gt 0.0744
_symmetry_cell_setting triclinic
_symmetry_space_group_name_H-M 'P -1'
_symmetry_Int_Tables_number 2
loop_
_symmetry_equiv_pos_site_id
_symmetry_equiv_pos_as_xyz
1 x,y,z
2 -x,-y,-z
_cell_length_a 9.941(6)
_cell_length_b 12.433(7)
_cell_length_c 21.299(12)
_cell_angle_alpha 105.511(7)
_cell_angle_beta 90.826(7)
_cell_angle_gamma 98.693(6)
_cell_formula_units_Z 2
loop_
_atom_type_symbol
_atom_type_radius_bond
C 0.68
H 0.23
N 0.68
O 0.68
Tm 1.90
loop_
_atom_site_label
_atom_site_type_symbol
_atom_site_fract_x
_atom_site_fract_y
_atom_site_fract_z
Tm1 Tm 0.51775(6) 0.67986(5) 0.19718(3)
Tm2 Tm 0.42385(6) 0.33267(5) 0.30475(3)
O1 O 0.4390(11) 0.5125(8) 0.3434(5)
O2 O 0.4882(11) 0.6407(9) 0.2908(5)
O3 O 0.4498(11) 0.3717(9) 0.2115(5)
O4 O 0.5013(10) 0.4976(8) 0.1570(5)
O5 O 0.1898(9) 0.3425(8) 0.3003(5)
O6 O 0.2552(10) 0.1888(9) 0.2415(5)
O7 O 0.6853(9) 0.8207(9) 0.2619(5)
O8 O 0.7559(11) 0.6720(9) 0.2030(5)
O9 O 1.0998(11) 1.0831(9) 0.3675(6)
H1 H 1.17950 1.11280 0.36820
O10 O 0.6535(11) 0.7882(10) 0.6278(5)
O11 O 0.5109(11) 0.6376(9) 0.5861(5)
O12 O 0.6468(14) 1.0031(9) 0.4595(6)
H2 H 0.63180 1.00970 0.42290
O13 O 0.3387(15) 0.0006(9) 0.0439(6)
H3 H 0.33910 -0.00330 0.08180
O14 O -0.1584(11) -0.0738(9) 0.1429(6)
H4 H -0.24000 -0.09780 0.13500
C1 C 0.1596(14) 0.2437(12) 0.2628(7)
C2 C -0.0082(14) 0.0855(13) 0.2004(7)
H5 H 0.06320 0.05000 0.18180
C3 C 0.0182(15) 0.1890(12) 0.2423(7)
C4 C -0.0876(14) 0.2450(13) 0.2674(7)
H6 H -0.06950 0.31790 0.29520
C5 C -0.1411(15) 0.0315(12) 0.1847(7)
C6 C 0.7816(14) 0.7681(12) 0.2409(7)
C7 C 0.9260(13) 0.8200(12) 0.2625(7)
C8 C 1.0339(14) 0.7660(12) 0.2381(7)
H7 H 1.01770 0.69370 0.20950
C9 C 0.9490(13) 0.9262(11) 0.3059(7)
H8 H 0.87630 0.96210 0.32230
C10 C 0.4784(14) 0.6125(13) 0.3425(6)
C11 C 0.5215(13) 0.7020(11) 0.4046(6)
C12 C 0.5261(13) 0.6718(11) 0.4610(6)
H9 H 0.50030 0.59710 0.46180
C13 C 0.5603(15) 0.8112(13) 0.4028(7)
H10 H 0.55730 0.82940 0.36320
C14 C 0.6045(16) 0.8954(12) 0.4602(7)
C15 C 0.4661(13) 0.3976(12) 0.1600(6)
C16 C 0.4468(14) 0.3041(12) 0.0976(6)
C17 C 0.4044(14) 0.1965(12) 0.1006(7)
H11 H 0.39020 0.18200 0.14080
C18 C 1.0809(15) 0.9781(13) 0.3246(8)
C19 C 1.1877(15) 0.9255(13) 0.3006(7)
H12 H 1.27660 0.96110 0.31410
C20 C 1.1646(14) 0.8200(13) 0.2565(7)
C21 C 0.6103(14) 0.8677(12) 0.5172(7)
H13 H 0.64070 0.92320 0.55570
C22 C 0.5712(13) 0.7573(12) 0.5183(7)
C23 C 0.5792(15) 0.7261(12) 0.5806(7)
C24 C 0.4641(13) 0.3283(13) 0.0393(6)
H14 H 0.49100 0.40240 0.03770
C25 C 0.4615(14) 0.2637(13) -0.0813(6)
C26 C 0.4002(14) 0.1317(12) -0.0154(7)
H15 H 0.38490 0.07370 -0.05400
C27 C 0.3820(17) 0.1073(12) 0.0432(7)
C28 C -0.2195(13) 0.1916(12) 0.2509(7)
C29 C -0.2471(14) 0.0848(12) 0.2091(7)
H16 H -0.33660 0.04920 0.19760
C30 C -0.3352(14) 0.2461(15) 0.2754(7)
O15 O -0.3245(10) 0.3552(9) 0.2987(5)
O16 O -0.4525(9) 0.1931(10) 0.2720(5)
O17 O 1.2698(10) 0.6643(9) 0.2031(5)
C31 C 1.2855(15) 0.7646(11) 0.2300(7)
C32 C 0.4408(13) 0.2406(12) -0.0177(6)
O18 O 0.4067(11) 0.1944(8) -0.1327(5)
O19 O 0.5328(12) 0.3518(9) -0.0858(5)
O20 O 1.3965(10) 0.8282(8) 0.2365(5)
C33 C 0.1341(17) 0.3472(15) 0.4962(10)
H17 H 0.12080 0.33050 0.45110
C34 C 0.1761(15) 0.5502(17) 0.4433(9)
H18 H 0.16420 0.48030 0.41230
C35 C 0.140(2) 0.2856(17) 0.5912(10)
H19 H 0.12740 0.22790 0.61180
C36 C 0.1191(16) 0.2626(18) 0.5251(10)
H20 H 0.09450 0.18810 0.50000
C37 C 0.1691(15) 0.4591(16) 0.5326(8)
N1 N 0.1919(13) 0.4761(13) 0.5959(7)
H21 H 0.21640 0.54460 0.61930
C38 C 0.1798(19) 0.3951(16) 0.6262(10)
H22 H 0.19830 0.41300 0.67100
C39 C 0.1828(15) 0.5591(16) 0.5086(8)
N2 N 0.1984(14) 0.6564(13) 0.5547(8)
C40 C 0.2089(18) 0.7506(17) 0.5366(10)
H23 H 0.21670 0.81950 0.56830
C41 C 0.2085(17) 0.7490(18) 0.4718(12)
H24 H 0.22250 0.81620 0.45970
C42 C 0.1876(18) 0.6482(18) 0.4259(11)
H25 H 0.18110 0.64610 0.38190
N3 N 0.8150(14) 0.4843(14) 0.1032(8)
H26 H 0.82670 0.55570 0.12200
N4 N 0.8667(16) 0.6454(14) 0.0457(8)
C43 C 0.8388(16) 0.5430(15) 0.0059(8)
C44 C 0.890(2) 0.7310(19) 0.0195(12)
H27 H 0.90970 0.80390 0.04710
C45 C 0.8133(15) 0.4512(14) 0.0379(8)
C46 C 0.7811(18) 0.2635(18) 0.0447(11)
H28 H 0.77150 0.18640 0.02430
C47 C 0.7948(16) 0.3411(17) 0.0084(9)
H29 H 0.79110 0.31610 -0.03690
C48 C 0.886(2) 0.717(2) -0.0454(13)
H30 H 0.90100 0.77910 -0.06250
C49 C 0.858(2) 0.609(2) -0.0853(12)
H31 H 0.85910 0.59720 -0.13020
C50 C 0.8286(17) 0.5195(17) -0.0605(9)
H32 H 0.80300 0.44630 -0.08710
C51 C 0.782(2) 0.302(2) 0.1104(11)
H33 H 0.77020 0.25080 0.13540
C52 C 0.7999(19) 0.414(2) 0.1402(10)
H34 H 0.80140 0.44120 0.18550
O21 O 0.5899(16) 0.0254(11) 0.3408(6)
H35 H 0.61520 -0.03190 0.31500
H36 H 0.57110 0.06880 0.31820
O22 O 0.0753(15) 0.5162(14) 0.2585(10)
H37 H 0.101(14) 0.458(9) 0.265(9)
H38 H 0.142(15) 0.549(15) 0.242(13)
O23 O 0.3433(16) 0.9841(11) 0.1662(6)
H39 H 0.31220 1.02850 0.19830
H40 H 0.40520 0.95600 0.18130
Tm1* Tm 1.51775(6) 0.67986(5) 0.19718(3)
Tm1A Tm 0.48225(6) 0.32014(5) -0.19718(3)
Tm2* Tm -0.57615(6) 0.33267(5) 0.30475(3)
Tm2A Tm 0.57615(6) 0.66733(5) 0.69525(3)
O10A O 0.3465(11) 0.2118(10) 0.3722(5)
O11A O 0.4891(11) 0.3624(9) 0.4139(5)
O15* O 0.6755(10) 0.3552(9) 0.2987(5)
O16* O 0.5475(9) 0.1931(10) 0.2720(5)
O17* O 0.2698(10) 0.6643(9) 0.2031(5)
O18A O 0.5933(11) 0.8056(8) 0.1327(5)
O19A O 0.4672(12) 0.6482(9) 0.0858(5)
O20* O 0.3965(10) 0.8282(8) 0.2365(5)
#END
