
#######################################################################
#
#                 Cambridge Crystallographic Data Centre
#                                CCDC
#
#######################################################################
#
# If this CIF has been generated from an entry in the Cambridge
# Structural Database, then it will include bibliographic, chemical,
# crystal, experimental, refinement or atomic coordinate data resulting
# from the CCDC's data processing and validation procedures.
#
#######################################################################

data_CSD_CIF_ZIMJEM
_audit_creation_date 2013-08-21
_audit_creation_method CSD-ConQuest-V1
_database_code_CSD ZIMJEM
_database_code_depnum_ccdc_archive 'CCDC 900785'
_chemical_formula_sum 'C14 H24 Dy1 N3 O15'
_chemical_formula_moiety
;
(H4 N1 1+)n,n(C14 H10 Dy1 N2 O10 1-),5n(H2 O1)
;
_journal_coden_Cambridge 211
_journal_volume 66
_journal_year 2013
_journal_page_first 3137
_journal_name_full 'J.Coord.Chem. '
loop_
_publ_author_name
"Yincheng Chang"
"Qi Shuai"
"Zhichao Pei"
_chemical_name_systematic
;
catena-[Ammonium bis(\m~2~-pyridine-2,4-dicarboxylato)-diaqua-dysprosium(iii) 
pentahydrate]
;
_cell_volume   4215.655
_exptl_crystal_colour 'yellow'
_exptl_crystal_density_diffrn 2.007
_exptl_crystal_description 'block'
_diffrn_ambient_temperature 298
#These two values have been output from a single CSD field.
_refine_ls_R_factor_gt 0.0343
_refine_ls_wR_factor_gt 0.0343
_symmetry_cell_setting orthorhombic
_symmetry_space_group_name_H-M 'P b c a'
_symmetry_Int_Tables_number 61
loop_
_symmetry_equiv_pos_site_id
_symmetry_equiv_pos_as_xyz
1 x,y,z
2 1/2-x,-y,1/2+z
3 -x,1/2+y,1/2-z
4 1/2+x,1/2-y,-z
5 -x,-y,-z
6 -1/2+x,y,-1/2-z
7 x,-1/2-y,-1/2+z
8 -1/2-x,-1/2+y,z
_cell_length_a 14.8901(12)
_cell_length_b 9.8668(7)
_cell_length_c 28.694(3)
_cell_angle_alpha 90
_cell_angle_beta 90
_cell_angle_gamma 90
_cell_formula_units_Z 8
loop_
_atom_type_symbol
_atom_type_radius_bond
C 0.68
H 0.23
Dy 1.92
N 0.68
O 0.68
loop_
_atom_site_label
_atom_site_type_symbol
_atom_site_fract_x
_atom_site_fract_y
_atom_site_fract_z
Dy1 Dy 0.505590(14) 0.33836(2) 0.385745(8)
N1 N 0.6355(3) 0.1958(4) 0.34765(16)
N2 N 0.3721(3) 0.4845(5) 0.35755(15)
O1 O 0.6488(2) 0.3778(4) 0.41623(13)
O2 O 0.7984(2) 0.3663(4) 0.41526(15)
O3 O 0.9347(2) -0.0285(4) 0.32628(13)
O4 O 0.8635(2) -0.0742(4) 0.25979(14)
O5 O 0.3688(2) 0.3022(4) 0.42509(13)
O6 O 0.2216(2) 0.3287(4) 0.43633(14)
O7 O 0.0656(2) 0.6917(4) 0.33499(13)
O8 O 0.1419(2) 0.7485(4) 0.27116(15)
O9 O 0.5301(3) 0.1612(4) 0.43872(14)
H1 H 0.58260 0.14290 0.44850
H2 H 0.49930 0.19090 0.46150
O10 O 0.4957(2) 0.5147(4) 0.44013(15)
H3 H 0.53080 0.57640 0.44990
H4 H 0.44370 0.52980 0.45120
C1 C 0.7224(3) 0.3286(5) 0.4017(2)
C2 C 0.8679(3) -0.0233(5) 0.2999(2)
C3 C 0.7170(3) 0.2193(5) 0.36530(19)
C4 C 0.7937(3) 0.1493(5) 0.35133(19)
H5 H 0.84900 0.16650 0.36520
C5 C 0.7855(3) 0.0533(5) 0.3162(2)
C6 C 0.7015(3) 0.0291(6) 0.29720(19)
H6 H 0.69380 -0.03440 0.27360
C7 C 0.6294(4) 0.1020(6) 0.3142(2)
H7 H 0.57300 0.08460 0.30160
C8 C 0.2932(3) 0.3548(5) 0.41614(19)
C9 C 0.1344(3) 0.6930(6) 0.3105(2)
C10 C 0.2918(3) 0.4600(5) 0.37727(18)
C11 C 0.2141(3) 0.5254(5) 0.36390(19)
H8 H 0.16000 0.50590 0.37860
C12 C 0.2175(3) 0.6211(5) 0.32812(19)
C13 C 0.3013(3) 0.6498(6) 0.3090(2)
H9 H 0.30720 0.71610 0.28620
C14 C 0.3753(3) 0.5792(6) 0.3242(2)
H10 H 0.43050 0.59830 0.31060
N3 N 0.4551(3) 0.9085(4) 0.44464(16)
H11 H 0.49730 0.85060 0.45490
H12 H 0.47960 0.99180 0.44290
H13 H 0.40810 0.90930 0.46440
H14 H 0.43540 0.88240 0.41640
O11 O 0.5896(2) 0.7263(4) 0.47725(14)
H15 H 0.62770 0.77060 0.46130
H16 H 0.60760 0.72350 0.50540
O12 O 0.6970(3) 0.1019(4) 0.46570(15)
H17 H 0.70130 0.02080 0.45590
H18 H 0.70640 0.10270 0.49490
O13 O 0.5322(4) 0.8526(6) 0.36047(18)
H19 H 0.58560 0.85420 0.37090
H20 H 0.53390 0.84110 0.33110
O14 O 0.4976(2) 0.3201(5) 0.22806(16)
H21 H 0.54040 0.35570 0.24340
H22 H 0.45510 0.30130 0.24680
O15 O 0.3379(2) 0.5890(4) 0.48103(14)
H23 H 0.34110 0.60120 0.51030
H24 H 0.32000 0.66220 0.46850
Dy1G Dy -0.005590(14) 0.83836(2) 0.385745(8)
Dy1G* Dy 0.994410(14) -0.16164(2) 0.385745(8)
O3G O 0.5653(2) 0.4715(4) 0.32628(13)
O7G O 0.4344(2) 0.1917(4) 0.33499(13)
#END
