
#######################################################################
#
#                 Cambridge Crystallographic Data Centre
#                                CCDC
#
#######################################################################
#
# If this CIF has been generated from an entry in the Cambridge
# Structural Database, then it will include bibliographic, chemical,
# crystal, experimental, refinement or atomic coordinate data resulting
# from the CCDC's data processing and validation procedures.
#
#######################################################################

data_CSD_CIF_ZIMLAK
_audit_creation_date 2013-08-21
_audit_creation_method CSD-ConQuest-V1
_database_code_CSD ZIMLAK
_database_code_depnum_ccdc_archive 'CCDC 913826'
_chemical_formula_sum 'C28 H48 B1 Er4 K1 N4 O74 W12'
_chemical_formula_moiety
;
(C28 H40 Er4 K1 N4 O30 5+)n,n(B1 O40 W12 5-),4n(H2 O1)
;
_journal_coden_Cambridge 211
_journal_volume 66
_journal_year 2013
_journal_page_first 2829
_journal_name_full 'J.Coord.Chem. '
loop_
_publ_author_name
"Wei-Ning Li"
"Feng Lin"
"Xing-Xing Li"
"Lan-Cui Zhang"
"Wan-Sheng You"
"Zong-Xuan Jiang"
_chemical_name_systematic
;
catena-(tetrakis(\m~4~-Pyridine-2,6-dicarboxylato)-tetradeca-aqua-tetra-erbium
-potassium (\m~12~-borato)-tetracosakis(\m~2~-oxo)-dodecaoxo-dodeca-tungsten 
tetrahydrate)
;
_cell_volume   7638.507
_exptl_crystal_colour 'pink'
_exptl_crystal_density_diffrn 3.956
_exptl_crystal_description 'block'
_diffrn_ambient_temperature 293
#These two values have been output from a single CSD field.
_refine_ls_R_factor_gt 0.0306
_refine_ls_wR_factor_gt 0.0306
_symmetry_cell_setting tetragonal
_symmetry_space_group_name_H-M 'I 41/a'
_symmetry_Int_Tables_number 88
loop_
_symmetry_equiv_pos_site_id
_symmetry_equiv_pos_as_xyz
1 x,y,z
2 1/2-x,-y,1/2+z
3 3/4-y,1/4+x,1/4+z
4 3/4+y,3/4-x,3/4+z
5 1/2+x,1/2+y,1/2+z
6 -x,1/2-y,z
7 1/4-y,3/4+x,3/4+z
8 1/4+y,1/4-x,1/4+z
9 -x,-y,-z
10 -1/2+x,y,-1/2-z
11 -3/4+y,-1/4-x,-1/4-z
12 -3/4-y,-3/4+x,-3/4-z
13 -1/2-x,-1/2-y,-1/2-z
14 x,-1/2+y,-z
15 -1/4+y,-3/4-x,-3/4-z
16 -1/4-y,-1/4+x,-1/4-z
_cell_length_a 21.781(2)
_cell_length_b 21.781(2)
_cell_length_c 16.101(3)
_cell_angle_alpha 90
_cell_angle_beta 90
_cell_angle_gamma 90
_cell_formula_units_Z 4
loop_
_atom_type_symbol
_atom_type_radius_bond
C 0.68
H 0.23
B 0.83
Er 1.89
K 2.03
N 0.68
O 0.68
W 1.62
loop_
_atom_site_label
_atom_site_type_symbol
_atom_site_fract_x
_atom_site_fract_y
_atom_site_fract_z
W1 W 0.355747(18) 0.316597(19) -0.13308(2)
W2 W 0.466750(18) 0.356336(18) 0.02773(3)
W3 W 0.606295(18) 0.295174(18) 0.02864(3)
O1 O 0.4338(3) 0.2801(3) 0.0585(4)
O2 O 0.5408(3) 0.3367(3) 0.0859(4)
O3 O 0.5110(3) 0.4184(3) -0.0306(4)
O4 O 0.4061(3) 0.3593(3) -0.0560(4)
O5 O 0.3822(3) 0.3724(3) -0.2192(4)
O6 O 0.2851(3) 0.3481(3) -0.1112(4)
O7 O 0.3545(3) 0.2513(3) -0.0552(4)
O8 O 0.6612(3) 0.2988(3) 0.1037(4)
O9 O 0.5234(3) 0.3023(3) -0.0704(4)
O10 O 0.4338(3) 0.4017(3) 0.1019(4)
B1 B 0.50000 0.25000 -0.12500
Er1 Er 0.883354(19) 0.41620(2) 0.12396(3)
O11 O 0.8674(3) 0.3760(4) 0.2593(4)
O12 O 0.9639(3) 0.4067(4) 0.0257(5)
O13 O 0.8892(4) 0.5095(4) 0.1908(5)
O14 O 0.7770(3) 0.4268(3) 0.1527(4)
O15 O 0.7451(3) 0.3891(3) 0.2745(4)
O16 O 0.4757(3) 0.4140(4) 0.3026(4)
O17 O 0.5593(3) 0.3738(4) 0.3616(4)
N1 N 0.6315(3) 0.4185(3) 0.2478(5)
C1 C 0.6716(4) 0.4367(4) 0.1901(6)
C2 C 0.6539(5) 0.4700(4) 0.1220(6)
H1 H 0.68240 0.48120 0.08180
C3 C 0.5925(5) 0.4869(5) 0.1141(7)
H2 H 0.57950 0.51080 0.06960
C4 C 0.5515(5) 0.4674(4) 0.1737(6)
H3 H 0.51020 0.47780 0.16980
C5 C 0.5724(4) 0.4319(4) 0.2396(6)
C6 C 0.7371(4) 0.4162(5) 0.2057(6)
C7 C 0.5322(5) 0.4052(5) 0.3058(7)
K1 K 0.50000 0.25000 0.37500
O18 O 0.50000 0.25000 0.221(1)
O19 O 0.3166(5) 0.4654(5) 0.0594(7)
O9E O 0.4766(3) 0.1977(3) -0.0704(4)
O9J O 0.5523(3) 0.2266(3) -0.1796(4)
O9O O 0.4477(3) 0.2734(3) -0.1796(4)
W1E W 0.644253(18) 0.183403(19) -0.13308(2)
W2E W 0.533250(18) 0.143664(18) 0.02773(3)
W3E W 0.393705(18) 0.204826(18) 0.02864(3)
O1E O 0.5662(3) 0.2199(3) 0.0585(4)
O2E O 0.4592(3) 0.1633(3) 0.0859(4)
O3E O 0.4890(3) 0.0816(3) -0.0306(4)
O4E O 0.5939(3) 0.1407(3) -0.0560(4)
O5E O 0.6178(3) 0.1276(3) -0.2192(4)
O6E O 0.7149(3) 0.1519(3) -0.1112(4)
O7E O 0.6455(3) 0.2487(3) -0.0552(4)
O8E O 0.3388(3) 0.2012(3) 0.1037(4)
O10E O 0.5662(3) 0.0983(3) 0.1019(4)
W1J W 0.566597(18) 0.394253(19) -0.11692(2)
W2J W 0.606336(18) 0.283250(18) -0.27773(3)
W3J W 0.545174(18) 0.143705(18) -0.27864(3)
O1J O 0.5301(3) 0.3162(3) -0.3085(4)
O2J O 0.5867(3) 0.2092(3) -0.3359(4)
O3J O 0.6684(3) 0.2390(3) -0.2194(4)
O4J O 0.6093(3) 0.3439(3) -0.1940(4)
O5J O 0.6224(3) 0.3678(3) -0.0308(4)
O6J O 0.5981(3) 0.4649(3) -0.1388(4)
O7J O 0.5013(3) 0.3955(3) -0.1948(4)
O8J O 0.5488(3) 0.0888(3) -0.3537(4)
O10J O 0.6517(3) 0.3162(3) -0.3519(4)
W1O W 0.433403(18) 0.105747(19) -0.11692(2)
W2O W 0.393664(18) 0.216750(18) -0.27773(3)
W3O W 0.454826(18) 0.356295(18) -0.27864(3)
O1O O 0.4699(3) 0.1838(3) -0.3085(4)
O2O O 0.4133(3) 0.2908(3) -0.3359(4)
O3O O 0.3316(3) 0.2610(3) -0.2194(4)
O4O O 0.3907(3) 0.1561(3) -0.1940(4)
O5O O 0.3776(3) 0.1322(3) -0.0308(4)
O6O O 0.4019(3) 0.0351(3) -0.1388(4)
O7O O 0.4987(3) 0.1045(3) -0.1948(4)
O8O O 0.4512(3) 0.4112(3) -0.3537(4)
O10O O 0.3483(3) 0.1838(3) -0.3519(4)
Er1E Er 0.116646(19) 0.08380(2) 0.12396(3)
O11E O 0.1326(3) 0.1240(4) 0.2593(4)
O12E O 0.0361(3) 0.0933(4) 0.0257(5)
O13E O 0.1108(4) -0.0095(4) 0.1908(5)
O14E O 0.2230(3) 0.0732(3) 0.1527(4)
O15E O 0.2549(3) 0.1109(3) 0.2745(4)
O16E O 0.5243(3) 0.0860(4) 0.3026(4)
O17E O 0.4407(3) 0.1262(4) 0.3616(4)
N1E N 0.3685(3) 0.0815(3) 0.2478(5)
C1E C 0.3284(4) 0.0633(4) 0.1901(6)
C2E C 0.3461(5) 0.0300(4) 0.1220(6)
H1E H 0.31760 0.01880 0.08180
C3E C 0.4075(5) 0.0131(5) 0.1141(7)
H2E H 0.42050 -0.01080 0.06960
C4E C 0.4485(5) 0.0326(4) 0.1737(6)
H3E H 0.48980 0.02220 0.16980
C5E C 0.4276(4) 0.0681(4) 0.2396(6)
C6E C 0.2629(4) 0.0838(5) 0.2057(6)
C7E C 0.4678(5) 0.0948(5) 0.3058(7)
Er1J Er 0.666200(19) -0.133354(20) 0.62604(3)
O11J O 0.6260(3) -0.1174(4) 0.4907(4)
O12J O 0.6567(3) -0.2139(4) 0.7243(5)
O13J O 0.7595(4) -0.1392(4) 0.5592(5)
O14J O 0.6768(3) -0.0270(3) 0.5973(4)
O15J O 0.6391(3) 0.0049(3) 0.4755(4)
O16J O 0.6640(3) 0.2743(4) 0.4474(4)
O17J O 0.6238(3) 0.1907(4) 0.3884(4)
N1J N 0.6685(3) 0.1185(3) 0.5022(5)
C1J C 0.6867(4) 0.0784(4) 0.5599(6)
C2J C 0.7200(5) 0.0961(4) 0.6280(6)
H1J H 0.73120 0.06760 0.66820
C3J C 0.7369(5) 0.1575(5) 0.6359(7)
H2J H 0.76080 0.17050 0.68040
C4J C 0.7174(5) 0.1985(4) 0.5763(6)
H3J H 0.72780 0.23980 0.58020
C5J C 0.6819(4) 0.1776(4) 0.5104(6)
C6J C 0.6662(4) 0.0129(5) 0.5443(6)
C7J C 0.6552(5) 0.2178(5) 0.4442(7)
O18J O 0.50000 0.25000 0.529(1)
Er1O Er 0.333800(19) 0.633354(20) 0.62604(3)
O11O O 0.3740(3) 0.6174(4) 0.4907(4)
O12O O 0.3433(3) 0.7139(4) 0.7243(5)
O13O O 0.2405(4) 0.6392(4) 0.5592(5)
O14O O 0.3232(3) 0.5270(3) 0.5973(4)
O15O O 0.3609(3) 0.4951(3) 0.4755(4)
O16O O 0.3360(3) 0.2257(4) 0.4474(4)
O17O O 0.3762(3) 0.3093(4) 0.3884(4)
N1O N 0.3315(3) 0.3815(3) 0.5022(5)
C1O C 0.3133(4) 0.4216(4) 0.5599(6)
C2O C 0.2800(5) 0.4039(4) 0.6280(6)
H1O H 0.26880 0.43240 0.66820
C3O C 0.2631(5) 0.3425(5) 0.6359(7)
H2O H 0.23920 0.32950 0.68040
C4O C 0.2826(5) 0.3015(4) 0.5763(6)
H3O H 0.27220 0.26020 0.58020
C5O C 0.3181(4) 0.3224(4) 0.5104(6)
C6O C 0.3338(4) 0.4871(5) 0.5443(6)
C7O C 0.3448(5) 0.2822(5) 0.4442(7)
Er1B Er 0.333800(19) 0.133354(20) 0.37396(3)
Er1G Er 0.666200(19) 0.366646(20) 0.37396(3)
Er1I Er 0.383354(19) 0.41620(2) 0.37604(3)
Er1L Er 0.616646(19) 0.08380(2) 0.37604(3)
O15C O 0.1391(3) 0.0049(3) 0.0245(4)
O15F O 0.8609(3) 0.4951(3) 0.0245(4)
O15H O 0.2549(3) 0.6109(3) 0.7255(4)
O15M O 0.7451(3) -0.1109(3) 0.7255(4)
O16B O 0.3360(3) 0.7257(4) 0.5526(4)
O16G O 0.6640(3) -0.2257(4) 0.5526(4)
O16I O 0.9757(3) 0.4140(4) 0.1974(4)
O16L O 0.0243(3) 0.0860(4) 0.1974(4)
O17C O 0.1238(3) 0.1907(4) 0.1116(4)
O17F O 0.8762(3) 0.3093(4) 0.1116(4)
O17H O 0.4407(3) 0.6262(4) 0.6384(4)
O17M O 0.5593(3) -0.1262(4) 0.6384(4)
N1C N 0.1685(3) 0.1185(3) -0.0022(5)
N1F N 0.8315(3) 0.3815(3) -0.0022(5)
N1H N 0.3685(3) 0.5815(3) 0.7522(5)
N1M N 0.6315(3) -0.0815(3) 0.7522(5)
#END
