
#######################################################################
#
#                 Cambridge Crystallographic Data Centre
#                                CCDC
#
#######################################################################
#
# If this CIF has been generated from an entry in the Cambridge
# Structural Database, then it will include bibliographic, chemical,
# crystal, experimental, refinement or atomic coordinate data resulting
# from the CCDC's data processing and validation procedures.
#
#######################################################################

data_CSD_CIF_ZIMLIS
_audit_creation_date 2013-08-21
_audit_creation_method CSD-ConQuest-V1
_database_code_CSD ZIMLIS
_database_code_depnum_ccdc_archive 'CCDC 913824'
_chemical_formula_sum 'C28 H48 B1 K1 N4 O74 Tb4 W12'
_chemical_formula_moiety
;
(C28 H40 K1 N4 O30 Tb4 5+)n,n(B1 O40 W12 5-),4n(H2 O1)
;
_journal_coden_Cambridge 211
_journal_volume 66
_journal_year 2013
_journal_page_first 2829
_journal_name_full 'J.Coord.Chem. '
loop_
_publ_author_name
"Wei-Ning Li"
"Feng Lin"
"Xing-Xing Li"
"Lan-Cui Zhang"
"Wan-Sheng You"
"Zong-Xuan Jiang"
_chemical_name_systematic
;
catena-(tetrakis(\m~4~-Pyridine-2,6-dicarboxylato)-tetradeca-aqua-tetra-potass
ium-terbium (\m~12~-borato)-tetracosakis(\m~2~-oxo)-dodecaoxo-dodeca-tungsten 
tetrahydrate)
;
_cell_volume   7727.984
_exptl_crystal_colour 'white'
_exptl_crystal_density_diffrn 3.882
_exptl_crystal_description 'block'
_diffrn_ambient_temperature 293
#These two values have been output from a single CSD field.
_refine_ls_R_factor_gt 0.0404
_refine_ls_wR_factor_gt 0.0404
_symmetry_cell_setting tetragonal
_symmetry_space_group_name_H-M 'I 41/a'
_symmetry_Int_Tables_number 88
loop_
_symmetry_equiv_pos_site_id
_symmetry_equiv_pos_as_xyz
1 x,y,z
2 1/2-x,-y,1/2+z
3 3/4-y,1/4+x,1/4+z
4 3/4+y,3/4-x,3/4+z
5 1/2+x,1/2+y,1/2+z
6 -x,1/2-y,z
7 1/4-y,3/4+x,3/4+z
8 1/4+y,1/4-x,1/4+z
9 -x,-y,-z
10 -1/2+x,y,-1/2-z
11 -3/4+y,-1/4-x,-1/4-z
12 -3/4-y,-3/4+x,-3/4-z
13 -1/2-x,-1/2-y,-1/2-z
14 x,-1/2+y,-z
15 -1/4+y,-3/4-x,-3/4-z
16 -1/4-y,-1/4+x,-1/4-z
_cell_length_a 21.8788(13)
_cell_length_b 21.8788(13)
_cell_length_c 16.1443(19)
_cell_angle_alpha 90
_cell_angle_beta 90
_cell_angle_gamma 90
_cell_formula_units_Z 4
loop_
_atom_type_symbol
_atom_type_radius_bond
C 0.68
H 0.23
B 0.83
K 2.03
N 0.68
O 0.68
Tb 1.94
W 1.62
loop_
_atom_site_label
_atom_site_type_symbol
_atom_site_fract_x
_atom_site_fract_y
_atom_site_fract_z
W1 W 0.46626(2) 0.14413(2) 1.02738(3)
W2 W 0.56551(2) 0.10603(2) 0.88309(3)
W3 W 0.60544(2) 0.20451(2) 1.02817(3)
O1 O 0.5406(4) 0.1634(4) 1.0856(5)
O2 O 0.5105(4) 0.0823(4) 0.9692(5)
O3 O 0.4346(4) 0.2212(4) 1.0572(5)
O4 O 0.4049(4) 0.1424(4) 0.9437(5)
O5 O 0.5970(5) 0.0360(4) 0.8607(6)
O6 O 0.6207(4) 0.1316(4) 0.9690(5)
O7 O 0.5003(4) 0.1055(4) 0.8059(5)
O8 O 0.6602(4) 0.2007(4) 1.1032(5)
O9 O 0.5240(4) 0.1979(4) 0.9296(5)
O10 O 0.4329(4) 0.0989(4) 1.1008(6)
B1 B 0.50000 0.25000 0.87500
Tb1 Tb 0.66699(3) 0.13417(3) 0.37323(3)
N1 N 0.6319(5) 0.0824(4) 0.2461(6)
C1 C 0.5730(5) 0.0685(5) 0.2379(8)
C2 C 0.5519(6) 0.0330(6) 0.1714(8)
H1 H 0.51080 0.02260 0.16740
C3 C 0.5921(7) 0.0142(7) 0.1132(9)
H2 H 0.57900 -0.00900 0.06840
C4 C 0.6537(6) 0.0301(6) 0.1210(8)
H3 H 0.68210 0.01770 0.08150
C5 C 0.6713(6) 0.0641(6) 0.1873(7)
C6 C 0.5329(5) 0.0942(6) 0.3034(8)
C7 C 0.7370(6) 0.0833(6) 0.2037(8)
O11 O 0.7768(4) 0.0732(4) 0.1511(5)
O12 O 0.7451(4) 0.1117(4) 0.2720(5)
O13 O 0.5594(4) 0.1258(5) 0.3600(6)
O14 O 0.4760(4) 0.0847(5) 0.3022(6)
K1 K 0.50000 0.25000 0.37500
O15 O 0.7621(5) 0.1389(5) 0.4409(6)
O16 O 0.6566(6) 0.2164(4) 0.2739(6)
O17 O 0.50000 0.25000 0.5298(12)
O18 O 0.6257(5) 0.1167(4) 0.5097(6)
O19 O 0.8163(6) 0.0326(6) 0.4375(8)
O9E O 0.4760(4) 0.3021(4) 0.9296(5)
O9J O 0.4479(4) 0.2260(4) 0.8204(5)
O9O O 0.5521(4) 0.2740(4) 0.8204(5)
W1E W 0.53374(2) 0.35587(2) 1.02738(3)
W2E W 0.43449(2) 0.39397(2) 0.88309(3)
W3E W 0.39456(2) 0.29549(2) 1.02817(3)
O1E O 0.4594(4) 0.3366(4) 1.0856(5)
O2E O 0.4895(4) 0.4177(4) 0.9692(5)
O3E O 0.5654(4) 0.2788(4) 1.0572(5)
O4E O 0.5951(4) 0.3576(4) 0.9437(5)
O5E O 0.4030(5) 0.4640(4) 0.8607(6)
O6E O 0.3793(4) 0.3684(4) 0.9690(5)
O7E O 0.4997(4) 0.3945(4) 0.8059(5)
O8E O 0.3398(4) 0.2993(4) 1.1032(5)
O10E O 0.5671(4) 0.4011(4) 1.1008(6)
W1J W 0.39413(2) 0.28374(2) 0.72262(3)
W2J W 0.35603(2) 0.18449(2) 0.86691(3)
W3J W 0.45451(2) 0.14456(2) 0.72183(3)
O1J O 0.4134(4) 0.2094(4) 0.6644(5)
O2J O 0.3323(4) 0.2395(4) 0.7808(5)
O3J O 0.4712(4) 0.3154(4) 0.6928(5)
O4J O 0.3924(4) 0.3451(4) 0.8063(5)
O5J O 0.2860(5) 0.1530(4) 0.8893(6)
O6J O 0.3816(4) 0.1293(4) 0.7810(5)
O7J O 0.3555(4) 0.2497(4) 0.9441(5)
O8J O 0.4507(4) 0.0898(4) 0.6468(5)
O10J O 0.3489(4) 0.3171(4) 0.6492(6)
W1O W 0.60587(2) 0.21626(2) 0.72262(3)
W2O W 0.64397(2) 0.31551(2) 0.86691(3)
W3O W 0.54549(2) 0.35544(2) 0.72183(3)
O1O O 0.5866(4) 0.2906(4) 0.6644(5)
O2O O 0.6677(4) 0.2605(4) 0.7808(5)
O3O O 0.5288(4) 0.1846(4) 0.6928(5)
O4O O 0.6076(4) 0.1549(4) 0.8063(5)
O5O O 0.7140(5) 0.3470(4) 0.8893(6)
O6O O 0.6184(4) 0.3707(4) 0.7810(5)
O7O O 0.6445(4) 0.2503(4) 0.9441(5)
O8O O 0.5493(4) 0.4102(4) 0.6468(5)
O10O O 0.6511(4) 0.1829(4) 0.6492(6)
Tb1E Tb 0.33301(3) 0.36583(3) 0.37323(3)
N1E N 0.3681(5) 0.4176(4) 0.2461(6)
C1E C 0.4270(5) 0.4315(5) 0.2379(8)
C2E C 0.4481(6) 0.4670(6) 0.1714(8)
H1E H 0.48920 0.47740 0.16740
C3E C 0.4079(7) 0.4858(7) 0.1132(9)
H2E H 0.42100 0.50900 0.06840
C4E C 0.3463(6) 0.4699(6) 0.1210(8)
H3E H 0.31790 0.48230 0.08150
C5E C 0.3287(6) 0.4359(6) 0.1873(7)
C6E C 0.4671(5) 0.4058(6) 0.3034(8)
C7E C 0.2630(6) 0.4167(6) 0.2037(8)
O11E O 0.2232(4) 0.4268(4) 0.1511(5)
O12E O 0.2549(4) 0.3883(4) 0.2720(5)
O13E O 0.4406(4) 0.3742(5) 0.3600(6)
O14E O 0.5240(4) 0.4153(5) 0.3022(6)
O15E O 0.2379(5) 0.3611(5) 0.4409(6)
O16E O 0.3434(6) 0.2836(4) 0.2739(6)
O18E O 0.3743(5) 0.3833(4) 0.5097(6)
Tb1J Tb 0.38417(3) 0.08301(3) 0.37677(3)
N1J N 0.3324(5) 0.1181(4) 0.5039(6)
C1J C 0.3185(5) 0.1770(5) 0.5121(8)
C2J C 0.2830(6) 0.1981(6) 0.5786(8)
H1J H 0.27260 0.23920 0.58260
C3J C 0.2642(7) 0.1579(7) 0.6368(9)
H2J H 0.24100 0.17100 0.68160
C4J C 0.2801(6) 0.0963(6) 0.6290(8)
H3J H 0.26770 0.06790 0.66850
C5J C 0.3141(6) 0.0787(6) 0.5627(7)
C6J C 0.3442(5) 0.2171(6) 0.4466(8)
C7J C 0.3333(6) 0.0130(6) 0.5463(8)
O11J O 0.3232(4) -0.0268(4) 0.5989(5)
O12J O 0.3617(4) 0.0049(4) 0.4780(5)
O13J O 0.3758(4) 0.1906(5) 0.3900(6)
O14J O 0.3347(4) 0.2740(5) 0.4478(6)
O15J O 0.3889(5) -0.0121(5) 0.3091(6)
O16J O 0.4664(6) 0.0934(4) 0.4761(6)
O17J O 0.50000 0.25000 0.2202(12)
O18J O 0.3667(5) 0.1243(4) 0.2403(6)
Tb1O Tb 0.61583(3) 0.41699(3) 0.37677(3)
N1O N 0.6676(5) 0.3819(4) 0.5039(6)
C1O C 0.6815(5) 0.3230(5) 0.5121(8)
C2O C 0.7170(6) 0.3019(6) 0.5786(8)
H1O H 0.72740 0.26080 0.58260
C3O C 0.7358(7) 0.3421(7) 0.6368(9)
H2O H 0.75900 0.32900 0.68160
C4O C 0.7199(6) 0.4037(6) 0.6290(8)
H3O H 0.73230 0.43210 0.66850
C5O C 0.6859(6) 0.4213(6) 0.5627(7)
C6O C 0.6558(5) 0.2829(6) 0.4466(8)
C7O C 0.6667(6) 0.4870(6) 0.5463(8)
O11O O 0.6768(4) 0.5268(4) 0.5989(5)
O12O O 0.6383(4) 0.4951(4) 0.4780(5)
O13O O 0.6242(4) 0.3094(5) 0.3900(6)
O14O O 0.6653(4) 0.2260(5) 0.4478(6)
O15O O 0.6111(5) 0.5121(5) 0.3091(6)
O16O O 0.5336(6) 0.4066(4) 0.4761(6)
O18O O 0.6333(5) 0.3757(4) 0.2403(6)
Tb1C Tb 0.88417(3) 0.08301(3) 0.12323(3)
Tb1F Tb 0.11583(3) 0.41699(3) 0.12323(3)
Tb1H Tb 0.33301(3) -0.13417(3) 0.62677(3)
Tb1M Tb 0.66699(3) 0.63417(3) 0.62677(3)
O11B O 0.6768(4) 0.0268(4) 0.4011(5)
O11G O 0.3232(4) 0.4732(4) 0.4011(5)
O11I O 0.2768(4) 0.0732(4) 0.3489(5)
O11L O 0.7232(4) 0.4268(4) 0.3489(5)
#END
