
#######################################################################
#
#                 Cambridge Crystallographic Data Centre
#                                CCDC
#
#######################################################################
#
# If this CIF has been generated from an entry in the Cambridge
# Structural Database, then it will include bibliographic, chemical,
# crystal, experimental, refinement or atomic coordinate data resulting
# from the CCDC's data processing and validation procedures.
#
#######################################################################

data_CSD_CIF_ZIMLEO
_audit_creation_date 2013-08-21
_audit_creation_method CSD-ConQuest-V1
_database_code_CSD ZIMLEO
_database_code_depnum_ccdc_archive 'CCDC 913825'
_chemical_formula_sum 'C28 H48 B1 Dy4 K1 N4 O74 W12'
_chemical_formula_moiety
;
(C28 H40 Dy4 K1 N4 O30 5+)n,n(B1 O40 W12 5-),4n(H2 O1)
;
_journal_coden_Cambridge 211
_journal_volume 66
_journal_year 2013
_journal_page_first 2829
_journal_name_full 'J.Coord.Chem. '
loop_
_publ_author_name
"Wei-Ning Li"
"Feng Lin"
"Xing-Xing Li"
"Lan-Cui Zhang"
"Wan-Sheng You"
"Zong-Xuan Jiang"
_chemical_name_systematic
;
catena-(tetrakis(\m~4~-Pyridine-2,6-dicarboxylato)-tetradeca-aqua-tetra-dyspro
sium-potassium 
(\m~12~-borato)-tetracosakis(\m~2~-oxo)-dodecaoxo-dodeca-tungsten 
tetrahydrate)
;
_cell_volume   7656.711
_exptl_crystal_colour 'white'
_exptl_crystal_density_diffrn 3.93
_exptl_crystal_description 'block'
_diffrn_ambient_temperature 296
#These two values have been output from a single CSD field.
_refine_ls_R_factor_gt 0.0299
_refine_ls_wR_factor_gt 0.0299
_symmetry_cell_setting tetragonal
_symmetry_space_group_name_H-M 'I 41/a'
_symmetry_Int_Tables_number 88
loop_
_symmetry_equiv_pos_site_id
_symmetry_equiv_pos_as_xyz
1 x,y,z
2 1/2-x,-y,1/2+z
3 3/4-y,1/4+x,1/4+z
4 3/4+y,3/4-x,3/4+z
5 1/2+x,1/2+y,1/2+z
6 -x,1/2-y,z
7 1/4-y,3/4+x,3/4+z
8 1/4+y,1/4-x,1/4+z
9 -x,-y,-z
10 -1/2+x,y,-1/2-z
11 -3/4+y,-1/4-x,-1/4-z
12 -3/4-y,-3/4+x,-3/4-z
13 -1/2-x,-1/2-y,-1/2-z
14 x,-1/2+y,-z
15 -1/4+y,-3/4-x,-3/4-z
16 -1/4-y,-1/4+x,-1/4-z
_cell_length_a 21.8108(8)
_cell_length_b 21.8108(8)
_cell_length_c 16.0953(12)
_cell_angle_alpha 90
_cell_angle_beta 90
_cell_angle_gamma 90
_cell_formula_units_Z 4
loop_
_atom_type_symbol
_atom_type_radius_bond
C 0.68
H 0.23
B 0.83
Dy 1.92
K 2.03
N 0.68
O 0.68
W 1.62
loop_
_atom_site_label
_atom_site_type_symbol
_atom_site_fract_x
_atom_site_fract_y
_atom_site_fract_z
W1 W 0.144040(12) 0.184213(13) 0.633099(17)
W2 W 0.033673(12) 0.144066(12) 0.472505(18)
W3 W -0.105685(12) 0.204574(12) 0.471650(18)
O1 O 0.1185(2) 0.1287(2) 0.7191(3)
O2 O -0.0407(2) 0.1634(2) 0.4143(3)
O3 O 0.0664(2) 0.2208(2) 0.4423(3)
O4 O 0.1446(2) 0.2494(2) 0.5555(3)
O5 O 0.0943(2) 0.1416(2) 0.5562(3)
O6 O 0.1677(2) 0.2395(2) 0.7187(3)
O7 O 0.2143(2) 0.1536(2) 0.6104(3)
O8 O -0.1613(2) 0.2002(2) 0.3967(3)
O9 O -0.02395(19) 0.1983(2) 0.5704(3)
O10 O 0.0669(2) 0.0979(2) 0.3989(3)
B1 B 0.00000 0.25000 0.62500
Dy1 Dy 0.883838(14) 0.416594(14) 0.123520(19)
O11 O 0.9653(2) 0.4062(3) 0.0251(3)
O12 O 0.8891(3) 0.5108(3) 0.1912(4)
K1 K 1.00000 0.25000 0.12500
O13 O 1.00000 0.25000 -0.0294(8)
O14 O 0.8666(2) 0.3749(3) 0.2591(3)
O15 O 0.8609(2) 0.4954(2) 0.0233(3)
O16 O 0.8229(2) 0.5269(2) -0.0980(3)
O17 O 0.8762(3) 0.3089(2) 0.1101(3)
O18 O 0.8355(3) 0.2260(2) 0.0524(3)
N1 N 0.8322(2) 0.3818(2) -0.0040(3)
C1 C 0.8178(3) 0.3229(3) -0.0119(4)
C2 C 0.7831(3) 0.3014(3) -0.0778(5)
H1 H 0.77330 0.26010 -0.08230
C3 C 0.7635(3) 0.3429(3) -0.1362(5)
H2 H 0.73920 0.32980 -0.18030
C4 C 0.7797(3) 0.4037(3) -0.1296(5)
H3 H 0.76780 0.43190 -0.16970
C5 C 0.8142(3) 0.4216(3) -0.0616(4)
C6 C 0.8340(3) 0.4861(3) -0.0457(4)
C7 C 0.8450(3) 0.2823(3) 0.0548(5)
O19 O 0.7837(3) 0.5661(3) 0.1879(4)
O9E O 0.02395(19) 0.3017(2) 0.5704(3)
O9K O 0.05170(19) 0.22605(20) 0.6796(3)
O9N O -0.05170(19) 0.27395(20) 0.6796(3)
W1E W -0.144040(12) 0.315787(13) 0.633099(17)
W2E W -0.033673(12) 0.355934(12) 0.472505(18)
W3E W 0.105685(12) 0.295426(12) 0.471650(18)
O1E O -0.1185(2) 0.3713(2) 0.7191(3)
O2E O 0.0407(2) 0.3366(2) 0.4143(3)
O3E O -0.0664(2) 0.2792(2) 0.4423(3)
O4E O -0.1446(2) 0.2506(2) 0.5555(3)
O5E O -0.0943(2) 0.3584(2) 0.5562(3)
O6E O -0.1677(2) 0.2605(2) 0.7187(3)
O7E O -0.2143(2) 0.3464(2) 0.6104(3)
O8E O 0.1613(2) 0.2998(2) 0.3967(3)
O10E O -0.0669(2) 0.4021(2) 0.3989(3)
W1K W 0.065787(12) 0.394040(13) 0.616901(17)
W2K W 0.105934(12) 0.283673(12) 0.777495(18)
W3K W 0.045426(12) 0.144315(12) 0.778350(18)
O1K O 0.1213(2) 0.3685(2) 0.5309(3)
O2K O 0.0866(2) 0.2093(2) 0.8357(3)
O3K O 0.0292(2) 0.3164(2) 0.8077(3)
O4K O 0.0006(2) 0.3946(2) 0.6945(3)
O5K O 0.1084(2) 0.3443(2) 0.6938(3)
O6K O 0.0105(2) 0.4177(2) 0.5313(3)
O7K O 0.0964(2) 0.4643(2) 0.6396(3)
O8K O 0.0498(2) 0.0887(2) 0.8533(3)
O10K O 0.1521(2) 0.3169(2) 0.8511(3)
W1N W -0.065787(12) 0.105960(13) 0.616901(17)
W2N W -0.105934(12) 0.216327(12) 0.777495(18)
W3N W -0.045426(12) 0.355685(12) 0.778350(18)
O1N O -0.1213(2) 0.1315(2) 0.5309(3)
O2N O -0.0866(2) 0.2907(2) 0.8357(3)
O3N O -0.0292(2) 0.1836(2) 0.8077(3)
O4N O -0.0006(2) 0.1054(2) 0.6945(3)
O5N O -0.1084(2) 0.1557(2) 0.6938(3)
O6N O -0.0105(2) 0.0823(2) 0.5313(3)
O7N O -0.0964(2) 0.0357(2) 0.6396(3)
O8N O -0.0498(2) 0.4113(2) 0.8533(3)
O10N O -0.1521(2) 0.1831(2) 0.8511(3)
Dy1E Dy 1.116162(14) 0.083406(14) 0.123520(19)
O11E O 1.0347(2) 0.0938(3) 0.0251(3)
O12E O 1.1109(3) -0.0108(3) 0.1912(4)
O14E O 1.1334(2) 0.1251(3) 0.2591(3)
O15E O 1.1391(2) 0.0046(2) 0.0233(3)
O16E O 1.1771(2) -0.0269(2) -0.0980(3)
O17E O 1.1238(3) 0.1911(2) 0.1101(3)
O18E O 1.1645(3) 0.2740(2) 0.0524(3)
N1E N 1.1678(2) 0.1182(2) -0.0040(3)
C1E C 1.1822(3) 0.1771(3) -0.0119(4)
C2E C 1.2169(3) 0.1986(3) -0.0778(5)
H1E H 1.22670 0.23990 -0.08230
C3E C 1.2365(3) 0.1571(3) -0.1362(5)
H2E H 1.26080 0.17020 -0.18030
C4E C 1.2203(3) 0.0963(3) -0.1296(5)
H3E H 1.23220 0.06810 -0.16970
C5E C 1.1858(3) 0.0784(3) -0.0616(4)
C6E C 1.1660(3) 0.0139(3) -0.0457(4)
C7E C 1.1550(3) 0.2177(3) 0.0548(5)
Dy1K Dy 0.833406(14) 0.133838(14) 0.126480(19)
O11K O 0.8438(2) 0.2153(3) 0.2249(3)
O12K O 0.7392(3) 0.1391(3) 0.0588(4)
O13K O 1.00000 0.25000 0.2794(8)
O14K O 0.8751(2) 0.1166(3) -0.0091(3)
O15K O 0.7546(2) 0.1109(2) 0.2267(3)
O16K O 0.7231(2) 0.0729(2) 0.3480(3)
O17K O 0.9411(3) 0.1262(2) 0.1399(3)
O18K O 1.0240(3) 0.0855(2) 0.1976(3)
N1K N 0.8682(2) 0.0822(2) 0.2540(3)
C1K C 0.9271(3) 0.0678(3) 0.2619(4)
C2K C 0.9486(3) 0.0331(3) 0.3278(5)
H1K H 0.98990 0.02330 0.33230
C3K C 0.9071(3) 0.0135(3) 0.3862(5)
H2K H 0.92020 -0.01080 0.43030
C4K C 0.8463(3) 0.0297(3) 0.3796(5)
H3K H 0.81810 0.01780 0.41970
C5K C 0.8284(3) 0.0642(3) 0.3116(4)
C6K C 0.7639(3) 0.0840(3) 0.2957(4)
C7K C 0.9677(3) 0.0950(3) 0.1952(5)
Dy1N Dy 1.166594(14) 0.366162(14) 0.126480(19)
O11N O 1.1562(2) 0.2847(3) 0.2249(3)
O12N O 1.2608(3) 0.3609(3) 0.0588(4)
O14N O 1.1249(2) 0.3834(3) -0.0091(3)
O15N O 1.2454(2) 0.3891(2) 0.2267(3)
O16N O 1.2769(2) 0.4271(2) 0.3480(3)
O17N O 1.0589(3) 0.3738(2) 0.1399(3)
O18N O 0.9760(3) 0.4145(2) 0.1976(3)
N1N N 1.1318(2) 0.4178(2) 0.2540(3)
C1N C 1.0729(3) 0.4322(3) 0.2619(4)
C2N C 1.0514(3) 0.4669(3) 0.3278(5)
H1N H 1.01010 0.47670 0.33230
C3N C 1.0929(3) 0.4865(3) 0.3862(5)
H2N H 1.07980 0.51080 0.43030
C4N C 1.1537(3) 0.4703(3) 0.3796(5)
H3N H 1.18190 0.48220 0.41970
C5N C 1.1716(3) 0.4358(3) 0.3116(4)
C6N C 1.2361(3) 0.4160(3) 0.2957(4)
C7N C 1.0323(3) 0.4050(3) 0.1952(5)
Dy1C Dy 1.166594(14) -0.133838(14) -0.126480(19)
Dy1F Dy 0.833406(14) 0.633838(14) -0.126480(19)
Dy1I Dy 1.383838(14) 0.416594(14) 0.376480(19)
Dy1L Dy 0.616162(14) 0.083406(14) 0.376480(19)
O16B O 1.2231(2) 0.0729(2) 0.1520(3)
O16G O 0.7769(2) 0.4271(2) 0.1520(3)
O16H O 1.1771(2) 0.4731(2) 0.0980(3)
O16M O 0.8229(2) 0.0269(2) 0.0980(3)
#END
