
#######################################################################
#
#                 Cambridge Crystallographic Data Centre
#                                CCDC
#
#######################################################################
#
# If this CIF has been generated from an entry in the Cambridge
# Structural Database, then it will include bibliographic, chemical,
# crystal, experimental, refinement or atomic coordinate data resulting
# from the CCDC's data processing and validation procedures.
#
#######################################################################

data_CSD_CIF_ZIMZUT
_audit_creation_date 2018-08-23
_audit_creation_method CSD-ConQuest-V1
_database_code_CSD ZIMZUT
_database_code_depnum_ccdc_archive 'CCDC 1839697'
_chemical_formula_sum 'C27 H35 In1 N6 O11'
_chemical_formula_moiety
;
C2 H8 N1 1+,n(C16 H6 In1 N2 O8 1-),3(C3 H7 N1 O1)
;
_journal_coden_Cambridge 9
_journal_volume 57
_journal_year 2018
_journal_page_first 10679
_journal_name_full 'Inorg.Chem. '
loop_
_publ_author_name
"Lifei Zou"
"Xiaodong Sun"
"Jiaqi Yuan"
"Guanghua Li"
"Yunling Liu"
_chemical_name_systematic
;
catena-[dimethylammonium 
(\m-2,2'-(diazene-1,2-diyl)di(benzene-1,4-dicarboxylato))-indium 
N,N-dimethylformamide solvate]
;
_chemical_name_common
;
JLU-MOF52
;
_cell_volume  14141.991
_exptl_crystal_colour 'yellow'
_exptl_crystal_density_diffrn 1.38
_exptl_crystal_description 'block'
_diffrn_ambient_temperature 296
_refine_special_details
;
The SQUEEZE/PLATON program has been used to model some disordered cations and 
solvent molecules.
;
#These two values have been output from a single CSD field.
_refine_ls_R_factor_gt 0.0554
_refine_ls_wR_factor_gt 0.0554
_symmetry_cell_setting orthorhombic
_symmetry_space_group_name_H-M 'F d d d'
_symmetry_Int_Tables_number 70
loop_
_symmetry_equiv_pos_site_id
_symmetry_equiv_pos_as_xyz
1 x,y,z
2 3/4-x,3/4-y,z
3 3/4-x,y,3/4-z
4 x,3/4-y,3/4-z
5 x,1/2+y,1/2+z
6 3/4-x,1/4-y,1/2+z
7 3/4-x,1/2+y,1/4-z
8 x,1/4-y,1/4-z
9 1/2+x,y,1/2+z
10 1/4-x,3/4-y,1/2+z
11 1/4-x,y,1/4-z
12 1/2+x,3/4-y,1/4-z
13 1/2+x,1/2+y,z
14 1/4-x,1/4-y,z
15 1/4-x,1/2+y,3/4-z
16 1/2+x,1/4-y,3/4-z
17 -x,-y,-z
18 -3/4+x,-3/4+y,-z
19 -3/4+x,-y,-3/4+z
20 -x,-3/4+y,-3/4+z
21 -x,-1/2-y,-1/2-z
22 -3/4+x,-1/4+y,-1/2-z
23 -3/4+x,-1/2-y,-1/4+z
24 -x,-1/4+y,-1/4+z
25 -1/2-x,-y,-1/2-z
26 -1/4+x,-3/4+y,-1/2-z
27 -1/4+x,-y,-1/4+z
28 -1/2-x,-3/4+y,-1/4+z
29 -1/2-x,-1/2-y,-z
30 -1/4+x,-1/4+y,-z
31 -1/4+x,-1/2-y,-3/4+z
32 -1/2-x,-1/4+y,-3/4+z
_cell_length_a 17.161(3)
_cell_length_b 27.505(6)
_cell_length_c 29.961(6)
_cell_angle_alpha 90
_cell_angle_beta 90
_cell_angle_gamma 90
_cell_formula_units_Z 16
loop_
_atom_type_symbol
_atom_type_radius_bond
C 0.68
H 0.23
In 1.42
N 0.68
O 0.68
loop_
_atom_site_label
_atom_site_type_symbol
_atom_site_fract_x
_atom_site_fract_y
_atom_site_fract_z
In1 In 0.62500 0.306915(15) 0.12500
O1 O 0.6289(3) 0.24876(19) 0.07260(16)
O2 O 0.5157(3) 0.27473(15) 0.09079(13)
O3 O 0.4640(3) 0.09270(14) -0.08561(13)
O4 O 0.3495(4) 0.12020(19) -0.06887(18)
N1 N 0.5798(5) 0.1200(3) -0.0434(3)
C1 C 0.5349(4) 0.1511(2) -0.0204(2)
C2 C 0.4562(4) 0.15250(19) -0.02883(16)
C3 C 0.4116(5) 0.1860(3) -0.0050(3)
H1 H 0.35870 0.18830 -0.01140
C4 C 0.4423(4) 0.2157(3) 0.0274(2)
H2 H 0.41050 0.23660 0.04360
C5 C 0.5201(4) 0.21379(19) 0.03508(16)
C6 C 0.5664(4) 0.1823(2) 0.0124(2)
H3 H 0.61950 0.18130 0.01850
C7 C 0.4205(5) 0.12038(19) -0.06247(19)
C8 C 0.5568(4) 0.2474(2) 0.06845(16)
O1M O 0.6211(3) 0.00124(19) 0.07260(16)
O2M O 0.7343(3) -0.02473(15) 0.09079(13)
O3M O 0.7860(3) 0.15730(14) -0.08561(13)
O4M O 0.9005(4) 0.12980(19) -0.06887(18)
N1M N 0.6702(5) 0.1300(3) -0.0434(3)
C1M C 0.7151(4) 0.0989(2) -0.0204(2)
C2M C 0.7938(4) 0.09750(19) -0.02883(16)
C3M C 0.8384(5) 0.0640(3) -0.0050(3)
H1M H 0.89130 0.06170 -0.01140
C4M C 0.8077(4) 0.0343(3) 0.0274(2)
H2M H 0.83950 0.01340 0.04360
C5M C 0.7299(4) 0.03621(19) 0.03508(16)
C6M C 0.6836(4) 0.0677(2) 0.0124(2)
H3M H 0.63050 0.06870 0.01850
C7M C 0.8295(5) 0.12962(19) -0.06247(19)
C8M C 0.6932(4) 0.0026(2) 0.06845(16)
In1G In 0.62500 -0.056915(15) 0.12500
In1V In 0.87500 0.193085(15) -0.12500
In1W In 0.37500 0.056915(15) -0.12500
O1J O 0.6211(3) 0.24876(19) 0.17740(16)
O2J O 0.7343(3) 0.27473(15) 0.15921(13)
O3Q O 0.7140(3) 0.34270(14) 0.08561(13)
O3S O 0.5360(3) 0.34270(14) 0.16439(13)
O4Q O 0.5995(4) 0.37020(19) 0.06887(18)
O4S O 0.6505(4) 0.37020(19) 0.18113(18)
#END
