
#######################################################################
#
#                 Cambridge Crystallographic Data Centre
#                                CCDC
#
#######################################################################
#
# If this CIF has been generated from an entry in the Cambridge
# Structural Database, then it will include bibliographic, chemical,
# crystal, experimental, refinement or atomic coordinate data resulting
# from the CCDC's data processing and validation procedures.
#
#######################################################################

data_CSD_CIF_ZITLOF
_audit_creation_date 2014-01-10
_audit_creation_method CSD-ConQuest-V1
_database_code_CSD ZITLOF
_database_code_depnum_ccdc_archive 'CCDC 940522'
_chemical_formula_sum 'C24 H68 Mn8 O54'
_chemical_formula_moiety
;
(C24 H34 Mn6 O37 4-)n,2n(H12 Mn1 O6 2+),5n(H2 O1)
;
_journal_coden_Cambridge 179
_journal_volume 52
_journal_year 2013
_journal_page_first 13463
_journal_name_full 'Angew.Chem.,Int.Ed. '
loop_
_publ_author_name
"S.C.Capelli"
"L.R.Falvello"
"E.Forcen-Vazquez"
"G.J.McIntyre"
"F.Palacio"
"S.Sanz"
"M.Tomas"
_chemical_name_systematic
;
catena-[bis(hexa-aqua-manganese) 
(\m~5~-2-oxidopropane-1,2,3-tricarboxylato)-(\m~4~-2-oxidopropane-1,2,3-tricar
boxylato)-bis(\m~3~-2-oxidopropane-1,2,3-tricarboxylato)-nona-aqua-hexa-mangan
ese pentahydrate]
;
_cell_volume   5727.680
_exptl_crystal_colour 'colorless'
_exptl_crystal_density_diffrn 1.925
_exptl_crystal_description 'block'
_diffrn_ambient_temperature 100
_refine_special_details
;
O10A,O12A,O14A,O15A and O10B,O12B,O14B,O15B disordered over two sites with 
occupancies 0.675:0.325.
;
#These two values have been output from a single CSD field.
_refine_ls_R_factor_gt 0.0771
_refine_ls_wR_factor_gt 0.0771
_symmetry_cell_setting monoclinic
_symmetry_space_group_name_H-M 'P 21/n'
_symmetry_Int_Tables_number 14
loop_
_symmetry_equiv_pos_site_id
_symmetry_equiv_pos_as_xyz
1 x,y,z
2 1/2-x,1/2+y,1/2-z
3 -x,-y,-z
4 -1/2+x,-1/2-y,-1/2+z
_cell_length_a 12.6911(3)
_cell_length_b 20.3286(5)
_cell_length_c 22.2341(5)
_cell_angle_alpha 90
_cell_angle_beta 93.128(2)
_cell_angle_gamma 90
_cell_formula_units_Z 4
loop_
_atom_type_symbol
_atom_type_radius_bond
C 0.68
H 0.23
Mn 1.61
O 0.68
loop_
_atom_site_label
_atom_site_type_symbol
_atom_site_fract_x
_atom_site_fract_y
_atom_site_fract_z
Mn1 Mn 0.42679(7) 0.69752(4) 0.27836(4)
Mn2 Mn 0.16463(7) 0.69923(4) 0.24747(4)
Mn3 Mn 0.27858(7) 0.58611(4) 0.33650(4)
Mn4 Mn 0.31075(7) 0.59091(4) 0.18491(4)
C1 C 0.4883(5) 0.5480(3) 0.2747(3)
O1 O 0.4014(3) 0.59106(18) 0.27528(17)
C2 C 0.5308(5) 0.5467(3) 0.2108(3)
O2 O 0.4710(3) 0.5661(2) 0.16688(19)
O3 O 0.6223(3) 0.5238(2) 0.2052(2)
C3 C 0.4532(5) 0.4750(3) 0.2856(3)
H1 H 0.39150 0.46450 0.25810
H2 H 0.51130 0.44490 0.27620
C4 C 0.4247(5) 0.4643(3) 0.3498(3)
O4 O 0.3488(4) 0.4963(2) 0.3699(2)
O5 O 0.4779(4) 0.4232(3) 0.3803(3)
C5 C 0.5756(5) 0.5673(3) 0.3216(3)
H3 H 0.54370 0.57410 0.36080
H4 H 0.62590 0.53020 0.32650
C6 C 0.6358(5) 0.6285(3) 0.3061(3)
O6 O 0.5906(3) 0.66962(19) 0.27017(19)
O7 O 0.7275(4) 0.6347(2) 0.3286(3)
C7 C 0.0972(5) 0.5503(3) 0.2447(3)
O8 O 0.1872(3) 0.59193(19) 0.24564(17)
C8 C 0.0550(5) 0.5469(3) 0.3086(3)
O9 O 0.1205(4) 0.5585(2) 0.35170(19)
O10 O -0.0384(4) 0.5296(3) 0.3146(2)
C9 C 0.1278(6) 0.4780(3) 0.2301(3)
H5 H 0.18560 0.46330 0.25880
H6 H 0.06630 0.44890 0.23490
C10 C 0.1631(5) 0.4731(3) 0.1666(3)
O11 O 0.2535(4) 0.4952(2) 0.15640(19)
O12 O 0.1056(4) 0.4472(2) 0.1251(2)
C11 C 0.0144(5) 0.5755(3) 0.1969(3)
H7 H 0.05010 0.58440 0.15920
H8 H -0.03800 0.54020 0.18820
C12 C -0.0419(5) 0.6354(3) 0.2139(3)
O13 O 0.0001(3) 0.6724(2) 0.25510(18)
O14 O -0.1294(4) 0.6494(2) 0.1864(2)
C13 C 0.3135(5) 0.7400(3) 0.1500(3)
O15 O 0.3177(3) 0.69715(19) 0.20076(17)
C14 C 0.1978(6) 0.7463(3) 0.1243(3)
O16 O 0.1231(3) 0.7286(2) 0.15732(18)
O17 O 0.1814(4) 0.7678(2) 0.0719(2)
C15 C 0.3820(6) 0.7157(3) 0.1026(3)
H9 H 0.39090 0.75160 0.07320
H10 H 0.45250 0.70570 0.12160
C16 C 0.3429(7) 0.6567(4) 0.0695(3)
O18 O 0.2773(4) 0.6211(2) 0.0923(2)
O19 O 0.3836(6) 0.6431(3) 0.0186(3)
C17 C 0.3398(5) 0.8116(3) 0.1704(3)
H11 H 0.32890 0.84170 0.13570
H12 H 0.29130 0.82510 0.20160
C18 C 0.4558(6) 0.8175(3) 0.1964(3)
O20 O 0.4762(3) 0.7924(2) 0.24936(18)
O21 O 0.5222(4) 0.8466(3) 0.1680(2)
C19 C 0.2741(5) 0.7363(3) 0.3750(3)
O22 O 0.2725(3) 0.69431(19) 0.32388(17)
C20 C 0.3898(5) 0.7390(3) 0.4032(3)
O23 O 0.4622(3) 0.7230(2) 0.37142(19)
O24 O 0.3983(4) 0.7591(2) 0.45773(18)
C21 C 0.1972(5) 0.7127(3) 0.4204(3)
H13 H 0.18790 0.74800 0.45030
H14 H 0.12780 0.70480 0.39910
C22 C 0.2318(5) 0.6505(3) 0.4535(3)
O25 O 0.2996(4) 0.6145(2) 0.43107(18)
O26 O 0.1875(4) 0.6367(2) 0.50170(19)
C23 C 0.2493(5) 0.8090(3) 0.3558(3)
H15 H 0.26170 0.83790 0.39130
H16 H 0.29880 0.82250 0.32520
C24 C 0.1374(5) 0.8191(3) 0.3303(3)
O27 O 0.1134(3) 0.7925(2) 0.27961(18)
O28 O 0.0739(4) 0.8513(2) 0.36053(19)
Mn5 Mn 0.54321(9) 0.73976(5) 0.51283(5)
O29 O 0.5115(4) 0.6309(2) 0.5068(2)
O30 O 0.6526(4) 0.7358(3) 0.4418(2)
O31 O 0.5678(6) 0.8502(3) 0.5245(4)
O32 O 0.4388(5) 0.7423(3) 0.5889(2)
Mn6 Mn 0.21115(9) 0.53606(5) 0.53772(5)
O33 O 0.0748(5) 0.5567(3) 0.5907(3)
O34 O 0.1104(5) 0.5047(3) 0.4618(2)
O35 O 0.3521(5) 0.4964(3) 0.4976(2)
O36 O 0.3085(4) 0.5770(2) 0.6103(2)
O37 O 0.1908(6) 0.4389(3) 0.5782(3)
Mn7 Mn -0.29922(9) 0.56080(5) 0.02692(5)
O38 O -0.3594(4) 0.5519(2) -0.0651(2)
O39 O -0.2471(5) 0.5646(3) 0.1201(2)
O40 O -0.4489(6) 0.5261(5) 0.0607(3)
O41 O -0.1565(9) 0.6107(8) -0.0025(5)
O42 O -0.2397(9) 0.4622(4) 0.0265(4)
O43 O -0.3791(7) 0.6587(4) 0.0243(3)
O44? O -0.4499(8) 0.5907(9) 0.0569(5)
O45? O -0.1353(8) 0.5422(11) -0.0026(5)
O46? O -0.3351(15) 0.4578(5) 0.0422(5)
O47? O -0.2711(12) 0.6656(5) 0.0078(5)
Mn8 Mn -0.20436(8) 0.81537(5) 0.26809(4)
O48 O -0.2730(4) 0.7383(2) 0.20806(19)
O49 O -0.3446(4) 0.8128(2) 0.3214(2)
O50 O -0.1257(3) 0.8863(2) 0.33030(19)
O51 O -0.0663(3) 0.8212(2) 0.2142(2)
O52 O -0.1361(3) 0.7341(2) 0.32173(19)
O53 O -0.2878(4) 0.8823(3) 0.2076(2)
O54 O 0.2168(5) 0.7393(2) 0.5850(2)
O55 O -0.0484(5) 0.6384(3) 0.4917(3)
O56 O 0.3701(5) 0.7483(3) -0.0566(2)
O57 O -0.1074(6) 0.4235(3) 0.1186(4)
O58 O 0.8138(5) 0.4903(3) 0.2407(3)
O17C O 0.6814(4) 0.7322(2) 0.5719(2)
Mn5C Mn 0.04321(9) 0.76024(5) 0.01283(5)
#END
