
#######################################################################
#
#                 Cambridge Crystallographic Data Centre
#                                CCDC
#
#######################################################################
#
# If this CIF has been generated from an entry in the Cambridge
# Structural Database, then it will include bibliographic, chemical,
# crystal, experimental, refinement or atomic coordinate data resulting
# from the CCDC's data processing and validation procedures.
#
#######################################################################

data_CSD_CIF_ZIWRUV
_audit_creation_date 2018-12-27
_audit_creation_method CSD-ConQuest-V1
_database_code_CSD ZIWRUV
_database_code_depnum_ccdc_archive 'CCDC 1872054'
_chemical_formula_sum 'C13 H26 N1 O15 P3 U2'
_chemical_formula_moiety
;
(C9 H12 O14 P3 U2 1-)n,C4 H12 N1 1+,H2 O1
;
_journal_coden_Cambridge 9
_journal_volume 58
_journal_year 2019
_journal_page_first 1382
_journal_name_full 'Inorg.Chem. '
loop_
_publ_author_name
"Si-Fu Tang"
"Xiaomin Hou"
_chemical_name_systematic
;
catena-[tetramethylammonium 
(\m-[{5-[(hydroxyphosphinato)methyl]-1,3-phenylene}bis(methylene)]bis(phosphon
ato))-tetraoxo-aqua-di-uranium(vi) monohydrate]
;
_cell_volume   4813.096
_exptl_crystal_colour 'yellow'
_exptl_crystal_density_diffrn 2.775
_exptl_crystal_description 'prism'
_diffrn_ambient_temperature 293
_refine_special_details
;
C10',C11',C12',C13' and C10,C11,C12,C13 disordered over two sites with 
occupancies 0.78:0.22.
;
#These two values have been output from a single CSD field.
_refine_ls_R_factor_gt 0.0337
_refine_ls_wR_factor_gt 0.0337
_symmetry_cell_setting orthorhombic
_symmetry_space_group_name_H-M 'P b c a'
_symmetry_Int_Tables_number 61
loop_
_symmetry_equiv_pos_site_id
_symmetry_equiv_pos_as_xyz
1 x,y,z
2 1/2-x,-y,1/2+z
3 -x,1/2+y,1/2-z
4 1/2+x,1/2-y,-z
5 -x,-y,-z
6 -1/2+x,y,-1/2-z
7 x,-1/2-y,-1/2+z
8 -1/2-x,-1/2+y,z
_cell_length_a 9.9357(6)
_cell_length_b 20.5884(11)
_cell_length_c 23.5290(13)
_cell_angle_alpha 90
_cell_angle_beta 90
_cell_angle_gamma 90
_cell_formula_units_Z 8
loop_
_atom_type_symbol
_atom_type_radius_bond
C 0.68
H 0.23
N 0.68
O 0.68
P 1.05
U 1.96
loop_
_atom_site_label
_atom_site_type_symbol
_atom_site_fract_x
_atom_site_fract_y
_atom_site_fract_z
U1 U 0.96716(3) 0.17529(2) 0.56150(2)
U2 U 0.98232(3) 0.05563(2) 0.76947(2)
P1 P 1.5991(2) 0.1924(1) 0.53150(9)
P2 P 1.24121(19) -0.05535(11) 0.35381(8)
P3 P 1.18194(19) 0.05797(11) 0.64477(9)
O1 O 1.2163(6) 0.1962(4) 0.5482(3)
H1 H 1.27720 0.17550 0.56600
H2 H 1.22960 0.23360 0.53410
O2 O 1.5081(5) 0.2433(3) 0.5063(3)
O3 O 1.7464(5) 0.2125(3) 0.5340(2)
O4 O 1.5410(5) 0.1797(3) 0.5928(2)
H3 H 1.56690 0.14420 0.60420
O5 O 1.1964(7) -0.0573(3) 0.2924(2)
O6 O 1.3945(5) -0.0650(3) 0.3540(2)
O7 O 1.1796(6) -0.1055(3) 0.3919(3)
O8 O 1.1030(6) 0.1112(3) 0.6174(3)
O9 O 1.1024(6) 0.0231(3) 0.6912(2)
O10 O 1.3148(5) 0.0838(3) 0.6682(2)
O11 O 0.9686(6) 0.1196(3) 0.5048(2)
O12 O 0.9639(6) 0.2339(3) 0.6160(3)
O13 O 1.0166(6) 0.1386(3) 0.7559(3)
O14 O 0.9569(6) -0.0279(3) 0.7838(2)
C1 C 1.4546(8) 0.0853(4) 0.4890(3)
C2 C 1.3882(8) 0.0760(4) 0.4379(3)
H4 H 1.42550 0.09270 0.40470
C3 C 1.2665(8) 0.0421(4) 0.4349(3)
C4 C 1.2114(8) 0.0193(4) 0.4855(3)
H5 H 1.12870 -0.00190 0.48450
C5 C 1.2758(8) 0.0270(4) 0.5372(3)
C6 C 1.3994(8) 0.0591(4) 0.5380(3)
H6 H 1.44570 0.06300 0.57210
C7 C 1.5897(8) 0.1186(4) 0.4915(4)
H7 H 1.61790 0.12790 0.45290
H8 H 1.65420 0.08830 0.50740
C8 C 1.2042(9) 0.0254(4) 0.3787(4)
H9 H 1.23540 0.05640 0.35050
H10 H 1.10740 0.03010 0.38180
C9 C 1.2204(9) -0.0013(5) 0.5911(3)
H11 H 1.28530 -0.03180 0.60640
H12 H 1.13910 -0.02530 0.58220
N1 N 0.835(2) 0.3053(9) 0.8102(8)
C10 C 0.962(3) 0.297(2) 0.7779(15)
H13 H 1.00770 0.25850 0.79080
H14 H 1.01910 0.33410 0.78390
H15 H 0.94220 0.29300 0.73820
C11 C 0.869(3) 0.3192(13) 0.8714(8)
H16 H 0.78870 0.33260 0.89100
H17 H 0.93480 0.35310 0.87330
H18 H 0.90390 0.28060 0.88890
C12 C 0.759(3) 0.2442(11) 0.8076(9)
H19 H 0.66660 0.25230 0.81790
H20 H 0.79690 0.21330 0.83350
H21 H 0.76210 0.22710 0.76960
C13 C 0.761(4) 0.3593(11) 0.7859(15)
H22 H 0.67430 0.36220 0.80370
H23 H 0.74980 0.35240 0.74580
H24 H 0.80980 0.39890 0.79210
C14? C 0.694(5) 0.327(6) 0.817(5)
H25? H 0.64680 0.32230 0.78180
H26? H 0.69240 0.37180 0.82860
H27? H 0.65060 0.30100 0.84580
C15? C 0.836(12) 0.2351(12) 0.801(2)
H28? H 0.80290 0.22560 0.76390
H29? H 0.77970 0.21460 0.82910
H30? H 0.92640 0.21900 0.80490
C16? C 0.893(13) 0.339(5) 0.761(2)
H31? H 0.84500 0.32660 0.72750
H32? H 0.98610 0.32690 0.75720
H33? H 0.88630 0.38490 0.76660
C17? C 0.910(9) 0.322(3) 0.862(3)
H34? H 0.94730 0.36500 0.85820
H35? H 0.98170 0.29150 0.86770
H36? H 0.85040 0.32110 0.89410
O15 O 0.714(4) 0.3032(17) 0.6569(12)
H37 H 0.77060 0.32020 0.63410
H38 H 0.69740 0.26870 0.67530
U1* U 1.96716(3) 0.17529(2) 0.56150(2)
U1C U 1.46716(3) 0.32471(2) 0.43850(2)
U1D U 1.03284(3) -0.17529(2) 0.43850(2)
U2A U 1.51768(3) -0.05563(2) 0.26947(2)
U2D U 1.01768(3) -0.05563(2) 0.23053(2)
U2E U 1.48232(3) 0.05563(2) 0.73053(2)
O2C O 1.0081(5) 0.2567(3) 0.4937(3)
O3* O 0.7464(5) 0.2125(3) 0.5340(2)
O5D O 0.8036(7) 0.0573(3) 0.7076(2)
O6A O 1.1055(5) 0.0650(3) 0.8540(2)
O7D O 0.8204(6) 0.1055(3) 0.6081(3)
O10E O 0.8148(5) 0.0838(3) 0.8318(2)
#END
