
#######################################################################
#
#                 Cambridge Crystallographic Data Centre
#                                CCDC
#
#######################################################################
#
# If this CIF has been generated from an entry in the Cambridge
# Structural Database, then it will include bibliographic, chemical,
# crystal, experimental, refinement or atomic coordinate data resulting
# from the CCDC's data processing and validation procedures.
#
#######################################################################

data_CSD_CIF_ZIWRIJ
_audit_creation_date 2018-12-27
_audit_creation_method CSD-ConQuest-V1
_database_code_CSD ZIWRIJ
_database_code_depnum_ccdc_archive 'CCDC 1872052'
_chemical_formula_sum 'C9 H15 O15 P3 U2'
_chemical_formula_moiety
;
(C9 H10 O13 P3 U2 1-)n,H3 O1 1+,H2 O1
;
_journal_coden_Cambridge 9
_journal_volume 58
_journal_year 2019
_journal_page_first 1382
_journal_name_full 'Inorg.Chem. '
loop_
_publ_author_name
"Si-Fu Tang"
"Xiaomin Hou"
_chemical_name_systematic
;
catena-[oxocnium 
(\m-[{5-[(hydroxyphosphinato)methyl]-1,3-phenylene}bis(methylene)]bis(phosphon
ato))-tetraoxo-di-uranium(vi) monohydrate]
;
_cell_volume   1132.193
_exptl_crystal_colour 'yellow'
_exptl_crystal_density_diffrn 2.734
_exptl_special_details
;
We calculate 9.04% void space in the structure

;
_exptl_crystal_description 'prism'
_diffrn_ambient_temperature 293
_diffrn_special_details
;
twin

;
#These two values have been output from a single CSD field.
_refine_ls_R_factor_gt 0.0723
_refine_ls_wR_factor_gt 0.0723
_symmetry_cell_setting triclinic
_symmetry_space_group_name_H-M 'P -1'
_symmetry_Int_Tables_number 2
loop_
_symmetry_equiv_pos_site_id
_symmetry_equiv_pos_as_xyz
1 x,y,z
2 -x,-y,-z
_cell_length_a 9.9256(13)
_cell_length_b 10.6108(13)
_cell_length_c 12.3642(15)
_cell_angle_alpha 110.333(4)
_cell_angle_beta 91.174(4)
_cell_angle_gamma 110.090(4)
_cell_formula_units_Z 2
loop_
_atom_type_symbol
_atom_type_radius_bond
C 0.68
H 0.23
O 0.68
P 1.05
U 1.96
loop_
_atom_site_label
_atom_site_type_symbol
_atom_site_fract_x
_atom_site_fract_y
_atom_site_fract_z
U1 U 0.15356(11) 0.00362(10) -0.37987(9)
U2 U 0.54177(14) 0.27628(10) 0.04739(7)
P1 P 0.5856(9) 0.0650(7) -0.7930(5)
P2 P 0.9050(7) 0.7106(7) -0.5314(7)
P3 P 0.4392(8) 0.3554(6) -0.1974(5)
O1 O 0.483(2) -0.0708(18) -0.8867(13)
O2 O 0.645(2) 0.1921(18) -0.8357(14)
O3 O 0.709(2) 0.043(2) -0.7400(16)
O4 O 0.904(2) 0.6022(19) -0.6549(17)
H1 H 0.91160 0.53010 -0.64940
O5 O 1.0258(19) 0.738(2) -0.442(2)
O6 O 0.9358(17) 0.8588(16) -0.5401(15)
O7 O 0.442(2) 0.5059(16) -0.1814(13)
O8 O 0.436(2) 0.3373(18) -0.0807(15)
O9 O 0.313(2) 0.2372(17) -0.2893(15)
O10 O 0.2622(17) -0.0244(16) -0.4901(15)
O11 O 0.034(2) 0.027(2) -0.274(2)
O12 O 0.720(2) 0.367(2) 0.0253(15)
O13 O 0.362(2) 0.1868(19) 0.0758(16)
C1 C 0.559(2) 0.250(2) -0.5737(17)
C2 C 0.610(2) 0.384(2) -0.5803(18)
H2 H 0.59940 0.39250 -0.65220
C3 C 0.675(3) 0.503(3) -0.485(2)
C4 C 0.676(3) 0.493(2) -0.3731(19)
H3 H 0.71420 0.57600 -0.30560
C5 C 0.619(2) 0.357(2) -0.3661(17)
C6 C 0.560(2) 0.236(2) -0.4651(18)
H4 H 0.52220 0.14480 -0.46070
C7 C 0.478(3) 0.115(2) -0.6825(18)
H5 H 0.39890 0.12940 -0.71730
H6 H 0.43480 0.03380 -0.65810
C8 C 0.729(3) 0.650(3) -0.487(2)
H7 H 0.73360 0.71760 -0.40910
H8 H 0.65860 0.65480 -0.53890
C9 C 0.606(3) 0.349(3) -0.2437(18)
H9 H 0.68550 0.42940 -0.18730
H10 H 0.61380 0.25990 -0.24560
O14 O 0.919(2) 0.365(2) -0.7217(19)
H11 H 0.84700 0.33660 -0.68800
H12 H 0.99420 0.36120 -0.69110
O15 O 0.936(9) 0.707(9) -0.009(7)
H13 H 1.01420 0.75440 -0.02660
H14 H 0.84910 0.65860 -0.04440
H15 H 0.94080 0.69500 0.05540
U1* U 1.15356(11) 1.00362(10) -0.37987(9)
U1A U 0.84644(11) -0.00362(10) -0.62013(9)
U1A* U 0.84644(11) 0.99638(10) -0.62013(9)
U2* U 0.54177(14) 0.27628(10) -0.95261(7)
U2A U 0.45823(14) -0.27628(10) -1.04739(7)
U2A* U 0.45823(14) 0.72372(10) -0.04739(7)
O1A O 0.517(2) 0.0708(18) -0.1133(13)
O2* O 0.645(2) 0.1921(18) 0.1643(14)
O3A O 0.291(2) -0.043(2) -0.2600(16)
O5* O 0.0258(19) -0.262(2) -0.442(2)
O6* O -0.0642(17) -0.1412(16) -0.5401(15)
O6A O 0.0642(17) 0.1412(16) -0.4599(15)
O7A O 0.558(2) 0.4941(16) 0.1814(13)
#END
