
#######################################################################
#
#                 Cambridge Crystallographic Data Centre
#                                CCDC
#
#######################################################################
#
# If this CIF has been generated from an entry in the Cambridge
# Structural Database, then it will include bibliographic, chemical,
# crystal, experimental, refinement or atomic coordinate data resulting
# from the CCDC's data processing and validation procedures.
#
#######################################################################

data_CSD_CIF_ZIXDAO
_audit_creation_date 2018-12-28
_audit_creation_method CSD-ConQuest-V1
_database_code_CSD ZIXDAO
_database_code_depnum_ccdc_archive 'CCDC 1858490'
_chemical_formula_sum 'C7 H12 Cr1 Fe1 N1 O12'
_chemical_formula_moiety
;
(C6 H6 Cr1 Fe1 O12 1-)n,C1 H6 N1 1+
;
_journal_coden_Cambridge 9
_journal_volume 58
_journal_year 2019
_journal_page_first 1184
_journal_name_full 'Inorg.Chem. '
loop_
_publ_author_name
"Jiong-Peng Zhao"
"Song-De Han"
"Fu-Chen Liu"
_chemical_name_systematic
;
catena-[methylammonium hexakis(\m-formato)-chromium-iron]
;
_cell_volume    816.923
_exptl_crystal_colour 'rose'
_exptl_crystal_density_diffrn 1.667
_exptl_crystal_description 'block'
_diffrn_ambient_temperature 293
_refine_special_details
;
N1 disordered by symmetry over three configurations with occupancy 0.3333.

;
#These two values have been output from a single CSD field.
_refine_ls_R_factor_gt 0.0676
_refine_ls_wR_factor_gt 0.0676
_symmetry_cell_setting hexagonal
_symmetry_space_group_name_H-M 'P -3 1 c'
_symmetry_Int_Tables_number 163
loop_
_symmetry_equiv_pos_site_id
_symmetry_equiv_pos_as_xyz
1 x,y,z
2 -y,x-y,z
3 -x+y,-x,z
4 -y,-x,1/2-z
5 -x+y,y,1/2-z
6 x,x-y,1/2-z
7 -x,-y,-z
8 y,-x+y,-z
9 x-y,x,-z
10 y,x,-1/2+z
11 x-y,-y,-1/2+z
12 -x,-x+y,-1/2+z
_cell_length_a 8.2152(12)
_cell_length_b 8.2152(12)
_cell_length_c 13.977(3)
_cell_angle_alpha 90
_cell_angle_beta 90
_cell_angle_gamma 120
_cell_formula_units_Z 2
loop_
_atom_type_symbol
_atom_type_radius_bond
C 0.68
H 0.23
Cr 1.39
Fe 1.52
N 0.68
O 0.68
loop_
_atom_site_label
_atom_site_type_symbol
_atom_site_fract_x
_atom_site_fract_y
_atom_site_fract_z
Fe1 Fe 0.33333 0.66667 0.25000
Cr1 Cr 0.00000 1.00000 0.00000
O1 O 0.1137(5) 0.6606(5) 0.1663(3)
O2 O -0.0128(5) 0.7952(5) 0.0801(2)
C1 C 0.1253(7) 0.7904(7) 0.1169(3)
H1 H 0.24458 0.89233 0.10584
N1 N 0.7216(19) 0.443(4) 0.25000
C2 C 0.66667 0.33333 0.128(4)
H2 H 0.58813 0.25710 0.07684
O1A O 0.3394(5) 0.4531(5) 0.1663(3)
O2A O 0.2048(5) 0.1920(5) 0.0801(2)
C1A C 0.2096(7) 0.3349(7) 0.1169(3)
H1A H 0.10767 0.35225 0.10584
O1A* O 0.3394(5) 1.4531(5) 0.1663(3)
O2A* O 0.2048(5) 1.1920(5) 0.0801(2)
C1A* C 0.2096(7) 1.3349(7) 0.1169(3)
H1A* H 0.10767 1.35225 0.10584
O1B O -0.4531(5) 0.8863(5) 0.1663(3)
O2B O -0.1920(5) 1.0128(5) 0.0801(2)
C1B C -0.3349(7) 0.8747(7) 0.1169(3)
H1B H -0.35225 0.75542 0.10584
O1B* O 0.5469(5) 0.8863(5) 0.1663(3)
O2B* O 0.8080(5) 1.0128(5) 0.0801(2)
C1B* C 0.6651(7) 0.8747(7) 0.1169(3)
H1B* H 0.64775 0.75542 0.10584
O1C O 0.3394(5) 0.8863(5) 0.3337(3)
O2C O 0.2048(5) 1.0128(5) 0.4199(2)
C1C C 0.2096(7) 0.8747(7) 0.3831(3)
H1C H 0.10767 0.75542 0.39416
Fe1* Fe -0.66667 0.66667 0.25000
Fe1** Fe 0.33333 1.66667 0.25000
Cr1* Cr 0.00000 0.00000 0.00000
Cr1** Cr 1.00000 1.00000 0.00000
Cr1C Cr 0.00000 1.00000 0.50000
O1D O 0.5469(5) 0.6606(5) 0.3337(3)
O1E O 0.1137(5) 0.4531(5) 0.3337(3)
O2F O 0.0128(5) 1.2048(5) -0.0801(2)
O2G O -0.2048(5) 0.8080(5) -0.0801(2)
O2H O 0.1920(5) 0.9872(5) -0.0801(2)
N1A N 0.5570(19) 0.2786(40) 0.25000
H2A H 0.74290 0.33103 0.07684
N1B N 0.7214(19) 0.2784(40) 0.25000
H2B H 0.66897 0.41187 0.07684
C2C C 0.66667 0.33333 0.372(4)
H2C H 0.74290 0.41187 0.42316
H2D H 0.66897 0.25710 0.42316
H2E H 0.58813 0.33103 0.42316
#END
