
#######################################################################
#
#                 Cambridge Crystallographic Data Centre
#                                CCDC
#
#######################################################################
#
# If this CIF has been generated from an entry in the Cambridge
# Structural Database, then it will include bibliographic, chemical,
# crystal, experimental, refinement or atomic coordinate data resulting
# from the CCDC's data processing and validation procedures.
#
#######################################################################

data_CSD_CIF_ZIXYIR
_audit_creation_date 2018-12-31
_audit_creation_method CSD-ConQuest-V1
_database_code_CSD ZIXYIR
_database_code_depnum_ccdc_archive 'CCDC 1448739'
_chemical_formula_sum 'C27.5 H33 Cu1 N9 O17.5 W5'
_chemical_formula_moiety
;
(C23 H25 Cu1 N7 O1 2+)n,0.5(O32 W10 4-),0.5(C3 H7 N1 O1),1.5(C2 H3 N1)
;
_journal_coden_Cambridge 1295
_journal_volume 100
_journal_year 2019
_journal_page_first 125
_journal_name_full 'Inorg.Chem.Commun. '
loop_
_publ_author_name
"Dongying Shi"
"Zheng Ming"
"Qiuyu Wu"
"Tianhua Lai"
"Kaijun Zheng"
"Cheng He"
"Junwei Zhao"
_chemical_name_systematic
;
catena-[bis(\m-3-amino-4,4'-bipyridine)-(N,N-dimethylformamide)-copper(ii) 
hemikis(docosakis(\m-oxo)-decaoxo-tetra-tungsten) N,N-dimethylformamide 
acetonitrile solvate]
;
_chemical_name_common
;
DT NPY
;
_cell_volume   4975.370
_exptl_crystal_colour 'dark green'
_exptl_crystal_description 'block'
_diffrn_ambient_temperature 180
_refine_special_details
;
N8 and N9 disordered over two sites with occupancies 0.35:0.15.

;
#These two values have been output from a single CSD field.
_refine_ls_R_factor_gt 0.0525
_refine_ls_wR_factor_gt 0.0525
_symmetry_cell_setting monoclinic
_symmetry_space_group_name_H-M 'P 21/n'
_symmetry_Int_Tables_number 14
loop_
_symmetry_equiv_pos_site_id
_symmetry_equiv_pos_as_xyz
1 x,y,z
2 1/2-x,1/2+y,1/2-z
3 -x,-y,-z
4 -1/2+x,-1/2-y,-1/2+z
_cell_length_a 15.3648(11)
_cell_length_b 15.8941(11)
_cell_length_c 20.3983(14)
_cell_angle_alpha 90
_cell_angle_beta 92.834(1)
_cell_angle_gamma 90
_cell_formula_units_Z 4
loop_
_atom_type_symbol
_atom_type_radius_bond
C 0.68
H 0.23
Cu 1.32
N 0.68
O 0.68
W 1.62
loop_
_atom_site_label
_atom_site_type_symbol
_atom_site_fract_x
_atom_site_fract_y
_atom_site_fract_z
W1 W 0.97436(4) 1.16557(3) 0.06884(3)
W2 W 0.84229(4) 0.96437(3) 0.07295(3)
W3 W 0.97830(4) 1.14559(3) -0.09019(3)
W4 W 0.84670(4) 0.94426(3) -0.08648(3)
W5 W 0.85142(4) 0.77621(3) 0.00696(3)
O1 O 0.9155(6) 1.0442(5) -0.0845(4)
O2 O 0.9112(6) 1.0603(5) 0.0694(5)
O3 O 0.9327(6) 0.8976(5) 0.0025(4)
O4 O 1.0571(6) 1.2521(6) 0.0524(5)
O5 O 0.9194(6) 1.1879(5) -0.0161(5)
O6 O 0.9389(7) 0.7625(5) 0.0755(5)
O7 O 1.0610(7) 1.1130(6) 0.1272(5)
O8 O 0.7903(7) 0.6852(6) 0.0094(6)
O9 O 0.9285(6) 0.9130(6) 0.1310(5)
O10 O 0.9221(8) 1.1928(6) -0.1550(5)
O11 O 0.7906(7) 0.9881(6) -0.0120(6)
O12 O 0.7978(6) 0.8364(6) -0.0658(5)
O13 O 0.7768(7) 0.9677(7) -0.1511(6)
O14 O 0.7643(7) 0.9987(7) 0.1249(7)
O15 O 0.7934(6) 0.8505(6) 0.0623(5)
O16 O 0.9136(8) 1.2235(6) 0.1209(6)
Cu1 Cu 0.99967(9) 0.51922(9) 0.24763(9)
O17 O 0.9979(7) 0.5238(7) 0.1288(6)
C1 C 0.8438(9) 0.4305(9) 0.1944(9)
H1 H 0.84840 0.47010 0.15990
C2 C 0.7789(10) 0.3687(9) 0.1887(8)
C3 C 0.7701(9) 0.3164(9) 0.2406(8)
C4 C 0.8254(10) 0.3232(10) 0.2956(9)
H2 H 0.82000 0.28670 0.33200
C5 C 0.8901(10) 0.3858(10) 0.2962(8)
H3 H 0.92830 0.39170 0.33400
C6 C 0.6418(10) 0.1188(10) 0.1999(9)
H4 H 0.64330 0.07370 0.16940
C7 C 0.7005(10) 0.1846(9) 0.1940(9)
C8 C 0.7037(8) 0.2476(8) 0.2404(8)
C9 C 0.6419(11) 0.2434(9) 0.2875(8)
H5 H 0.63990 0.28630 0.31980
C10 C 0.5841(9) 0.1785(9) 0.2880(8)
H6 H 0.54160 0.17820 0.32030
C11 C 1.3570(9) 0.9112(9) 0.2037(9)
H7 H 1.35400 0.95170 0.16950
C12 C 1.2974(10) 0.8467(9) 0.2012(8)
C13 C 1.2988(8) 0.7902(7) 0.2520(7)
C14 C 1.3614(10) 0.7983(8) 0.3018(8)
H8 H 1.36430 0.75930 0.33710
C15 C 1.4193(9) 0.8628(8) 0.3001(8)
H9 H 1.46230 0.86780 0.33500
C16 C 1.1639(8) 0.5974(7) 0.2115(7)
H10 H 1.16380 0.55100 0.18210
C17 C 1.2299(8) 0.6561(8) 0.2074(8)
C18 C 1.2309(8) 0.7232(7) 0.2547(7)
C19 C 1.1717(9) 0.7211(8) 0.3015(7)
C20 C 1.1056(9) 0.6616(8) 0.2984(7)
H11 H 1.06190 0.66420 0.32970
C21 C 1.109(2) 0.6066(17) 0.0000(13)
H12 H 1.07770 0.65930 0.00630
H13 H 1.09460 0.58460 -0.04410
H14 H 1.17210 0.61690 0.00490
C22 C 1.1271(18) 0.4658(14) 0.0435(14)
H15 H 1.10500 0.43030 0.07830
H16 H 1.19040 0.47180 0.05010
H17 H 1.11320 0.43960 0.00080
C23 C 1.0287(11) 0.5673(10) 0.0877(10)
H18 H 1.00780 0.62350 0.08590
N1 N 0.8992(7) 0.4359(6) 0.2464(6)
N2 N 0.5848(6) 0.1158(6) 0.2452(6)
N3 N 1.4187(6) 0.9201(6) 0.2513(6)
N4 N 1.1011(7) 0.6011(6) 0.2534(6)
N5 N 1.249(2) 0.8307(18) 0.1444(12)
H19 H 1.21870 0.78390 0.14030
H20 H 1.24840 0.86730 0.11190
N6 N 0.744(3) 0.193(2) 0.1396(18)
H21 H 0.77530 0.23830 0.13340
H22 H 0.74220 0.15240 0.11000
N7 N 1.0859(14) 0.5493(10) 0.0456(10)
O18 O 0.848(2) -0.001(2) -0.3978(17)
C24 C 0.888(3) 0.035(3) -0.2682(16)
H23 H 0.91330 0.05520 -0.22620
H24 H 0.89060 -0.02700 -0.26890
H25 H 0.82720 0.05290 -0.27360
C25 C 1.012(3) 0.116(3) -0.308(2)
H26 H 1.02120 0.12580 -0.26050
H27 H 1.00620 0.17010 -0.33060
H28 H 1.06270 0.08560 -0.32380
C26 C 0.912(3) 0.042(3) -0.385(2)
H29 H 0.94730 0.05890 -0.42010
N8 N 0.936(2) 0.067(3) -0.3201(16)
C27 C 1.0505(13) 0.5548(16) 0.4341(14)
C28 C 1.097(2) 0.597(3) 0.4961(15)
H30 H 1.06210 0.64440 0.51080
H31 H 1.15470 0.61820 0.48450
H32 H 1.10470 0.55580 0.53150
N9 N 1.0111(11) 0.5168(10) 0.3885(10)
C29 C 0.998(3) 0.174(3) 0.287(2)
C30 C 0.926(3) 0.117(3) 0.305(2)
H33 H 0.90310 0.08700 0.26610
H34 H 0.87850 0.15080 0.32290
H35 H 0.94740 0.07700 0.33830
N10 N 1.025(3) 0.214(3) 0.343(3)
N11? N 1.167(3) 0.785(2) 0.347(2)
H36? H 1.20270 0.82810 0.34570
H37? H 1.12790 0.78270 0.37710
N12? N 0.7255(18) 0.3700(17) 0.1329(14)
H38? H 0.68130 0.33490 0.12870
H39? H 0.73540 0.40590 0.10130
N13? N 1.2873(18) 0.6502(19) 0.1589(15)
H40? H 1.28250 0.60900 0.13010
H41? H 1.32930 0.68760 0.15630
W1B W 1.02564(4) 0.83443(3) -0.06884(3)
W2B W 1.15771(4) 1.03563(3) -0.07295(3)
W3B W 1.02170(4) 0.85441(3) 0.09019(3)
W4B W 1.15330(4) 1.05574(3) 0.08648(3)
W5B W 1.14858(4) 1.22379(3) -0.00696(3)
O1B O 1.0845(6) 0.9558(5) 0.0845(4)
O2B O 1.0888(6) 0.9397(5) -0.0694(5)
O3B O 1.0673(6) 1.1024(5) -0.0025(4)
O4B O 0.9429(6) 0.7479(6) -0.0524(5)
O5B O 1.0806(6) 0.8121(5) 0.0161(5)
O6B O 1.0611(7) 1.2375(5) -0.0755(5)
O7B O 0.9390(7) 0.8870(6) -0.1272(5)
O8B O 1.2097(7) 1.3148(6) -0.0094(6)
O9B O 1.0715(6) 1.0870(6) -0.1310(5)
O10B O 1.0779(8) 0.8072(6) 0.1550(5)
O11B O 1.2094(7) 1.0119(6) 0.0120(6)
O12B O 1.2022(6) 1.1636(6) 0.0658(5)
O13B O 1.2232(7) 1.0323(7) 0.1511(6)
O14B O 1.2357(7) 1.0013(7) -0.1249(7)
O15B O 1.2066(6) 1.1495(6) -0.0623(5)
O16B O 1.0864(8) 0.7765(6) -0.1209(6)
Cu1A Cu 0.50033(9) 0.01922(9) 0.25237(9)
Cu1A* Cu 1.50033(9) 1.01922(9) 0.25237(9)
N2A N 0.9152(6) 0.6158(6) 0.2548(6)
N3A N 1.0813(6) 0.4201(6) 0.2487(6)
#END
