
#######################################################################
#
#                 Cambridge Crystallographic Data Centre
#                                CCDC
#
#######################################################################
#
# If this CIF has been generated from an entry in the Cambridge
# Structural Database, then it will include bibliographic, chemical,
# crystal, experimental, refinement or atomic coordinate data resulting
# from the CCDC's data processing and validation procedures.
#
#######################################################################

data_CSD_CIF_ZIXYIR01
_audit_creation_date 2018-12-31
_audit_creation_method CSD-ConQuest-V1
_database_code_CSD ZIXYIR01
_database_code_depnum_ccdc_archive 'CCDC 1888032'
_chemical_formula_sum 'C27.5 H33 Cu1 N9 O17.5 W5'
_chemical_formula_moiety
;
(C23 H25 Cu1 N7 O1 2+)n,0.5(O32 W10 4-),1.5(C2 H3 N1),0.5(C3 H7 N1 O1)
;
_journal_coden_Cambridge 1295
_journal_volume 100
_journal_year 2019
_journal_page_first 125
_journal_name_full 'Inorg.Chem.Commun. '
loop_
_publ_author_name
"Dongying Shi"
"Zheng Ming"
"Qiuyu Wu"
"Tianhua Lai"
"Kaijun Zheng"
"Cheng He"
"Junwei Zhao"
_chemical_name_systematic
;
catena-[bis(\m-3-amino-4,4'-bipyridine)-(N,N-dimethylformamide)-copper(ii) 
hemikis(docosakis(\m-oxo)-deca-oxo-deca-tungsten) acetonitrile 
N,N-dimethylformamide unknown solvate]
;
_chemical_name_common
;
DT NPY
;
_cell_volume   4975.370
_exptl_crystal_colour 'dark green'
_exptl_crystal_density_diffrn 2.332
_exptl_crystal_description 'block'
_diffrn_ambient_temperature 286.5
_refine_special_details
;
The structure is disordered; The SQUEEZE/PLATON program has been used to 
model some disorder. The unit cell was found to contain two voids of 347 
A$3!, each holding 63 electrons.
;
#These two values have been output from a single CSD field.
_refine_ls_R_factor_gt 0.05
_refine_ls_wR_factor_gt 0.05
_symmetry_cell_setting monoclinic
_symmetry_space_group_name_H-M 'P 21/n'
_symmetry_Int_Tables_number 14
loop_
_symmetry_equiv_pos_site_id
_symmetry_equiv_pos_as_xyz
1 x,y,z
2 1/2-x,1/2+y,1/2-z
3 -x,-y,-z
4 -1/2+x,-1/2-y,-1/2+z
_cell_length_a 15.3648(11)
_cell_length_b 15.8941(11)
_cell_length_c 20.3983(14)
_cell_angle_alpha 90
_cell_angle_beta 92.834(1)
_cell_angle_gamma 90
_cell_formula_units_Z 4
loop_
_atom_type_symbol
_atom_type_radius_bond
C 0.68
H 0.23
Cu 1.32
N 0.68
O 0.68
W 1.62
loop_
_atom_site_label
_atom_site_type_symbol
_atom_site_fract_x
_atom_site_fract_y
_atom_site_fract_z
W1 W 0.97437(3) 0.16557(3) 0.06884(3)
O1 O 0.9116(6) 0.0605(5) 0.0695(4)
O2 O 1.0566(5) 0.2521(5) 0.0524(5)
O3 O 0.9194(6) 0.1881(5) -0.0160(4)
O4 O 1.0608(6) 0.1129(5) 0.1270(4)
O5 O 0.9140(7) 0.2234(6) 0.1208(5)
O6 O 1.0675(5) 0.1023(5) -0.0025(4)
W2 W 0.84229(4) -0.03563(3) 0.07297(3)
W3 W 1.14858(4) 0.22379(3) -0.00697(3)
W4 W 0.97830(4) 0.14558(3) -0.09019(3)
W5 W 1.15330(4) 0.05574(3) 0.08648(3)
O7 O 0.9283(6) -0.0871(6) 0.1309(4)
O8 O 0.7907(6) -0.0119(6) -0.0122(5)
O9 O 0.7644(7) -0.0013(6) 0.1250(6)
O10 O 0.7935(6) -0.1496(5) 0.0621(5)
O11 O 1.0611(6) 0.2374(5) -0.0755(4)
O12 O 1.2097(6) 0.3148(6) -0.0099(6)
O13 O 1.2021(6) 0.1633(5) 0.0660(5)
O14 O 0.9152(6) 0.0443(5) -0.0847(4)
O15 O 0.9218(7) 0.1925(6) -0.1548(5)
O16 O 1.2234(7) 0.0321(6) 0.1509(6)
Cu1 Cu 0.99967(9) 0.51921(8) 0.24763(9)
O17 O 0.9976(7) 0.5236(7) 0.1287(6)
N1 N 0.8991(6) 0.4357(6) 0.2467(6)
N2 N 0.5849(6) 0.1157(6) 0.2447(6)
N3 N 1.0811(6) 0.4201(5) 0.2489(6)
N4 N 1.3988(6) 0.1010(5) 0.2464(5)
N5 N 1.250(2) 0.3303(17) 0.3566(11)
H1 H 1.24282 0.36046 0.39090
H2 H 1.28735 0.28984 0.35817
N6 N 1.0856(13) 0.5503(10) 0.0453(9)
C1 C 0.8442(8) 0.4304(9) 0.1942(8)
H3 H 0.84945 0.46885 0.16020
C2 C 0.7787(9) 0.3689(9) 0.1883(8)
C3 C 0.7700(9) 0.3168(8) 0.2405(8)
C4 C 0.825(1) 0.3238(10) 0.2958(8)
H4 H 0.81917 0.28843 0.33166
C5 C 0.8898(9) 0.3859(9) 0.2964(7)
H5 H 0.92714 0.39165 0.33342
C6 C 0.6414(10) 0.1183(9) 0.1992(8)
H6 H 0.64238 0.07446 0.16901
C7 C 0.7006(9) 0.1841(8) 0.1940(8)
C8 C 0.7036(8) 0.2474(8) 0.2406(7)
C9 C 0.642(1) 0.2431(8) 0.2877(8)
H7 H 0.63991 0.28503 0.31938
C10 C 0.5845(9) 0.1783(8) 0.2883(7)
H8 H 0.54332 0.17748 0.32016
C11 C 1.1428(8) 0.4113(9) 0.2967(8)
H9 H 1.14566 0.45124 0.33002
C12 C 1.2026(9) 0.3466(8) 0.2997(8)
C13 C 1.2014(7) 0.2902(7) 0.2482(6)
C14 C 1.1384(9) 0.2984(7) 0.1978(7)
H10 H 1.13541 0.26022 0.16323
C15 C 1.0807(9) 0.3635(7) 0.1998(7)
H11 H 1.03897 0.36908 0.16551
C16 C 1.3361(7) 0.0973(7) 0.2887(7)
H12 H 1.33644 0.05199 0.31753
C17 C 1.2703(8) 0.1562(7) 0.2929(7)
C18 C 1.2698(8) 0.2230(7) 0.2454(6)
C19 C 1.3279(8) 0.2208(7) 0.1984(7)
C20 C 1.3939(8) 0.1614(7) 0.2016(7)
H13 H 1.43675 0.16410 0.17104
C21 C 1.112(2) 0.6079(14) -0.0012(12)
H14 H 1.15422 0.58220 -0.02777
H15 H 1.06223 0.62497 -0.02846
H16 H 1.13697 0.65619 0.02072
C22 C 1.1272(17) 0.4645(13) 0.0430(13)
H17 H 1.16751 0.46309 0.00853
H18 H 1.15778 0.45315 0.08428
H19 H 1.08297 0.42267 0.03486
C23 C 1.0287(10) 0.5675(9) 0.0880(9)
H20 H 1.00863 0.62268 0.08702
N7 N 0.742(2) 0.192(2) 0.1388(18)
H21 H 0.77073 0.23711 0.13160
H22 H 0.73927 0.15234 0.11022
O18 O 1.154(2) 0.000(2) 0.3993(17)
N8 N 1.065(2) -0.067(2) 0.3224(15)
C24 C 1.112(3) -0.037(2) 0.2700(15)
H23 H 1.16255 -0.00632 0.28706
H24 H 1.13102 -0.08312 0.24390
H25 H 1.07607 0.00001 0.24323
C25 C 0.989(3) -0.114(3) 0.308(2)
H26 H 0.96371 -0.13072 0.34877
H27 H 0.94736 -0.08052 0.28317
H28 H 1.00231 -0.16365 0.28384
C26 C 1.089(3) -0.043(3) 0.387(2)
H29 H 1.05532 -0.05952 0.42150
N9 N 1.0106(10) 0.5166(9) 0.3880(9)
C27 C 1.0501(13) 0.5535(15) 0.4337(14)
C28 C 1.0977(18) 0.597(2) 0.4946(14)
N10 N 1.024(3) 0.214(3) 0.344(3)
C29 C 0.991(3) 0.168(3) 0.289(2)
C30 C 0.919(3) 0.115(3) 0.306(2)
N11? N 1.333(2) 0.285(2) 0.1527(18)
H30? H 1.29861 0.32733 0.15393
H31? H 1.37086 0.28204 0.12297
N12? N 1.2129(17) 0.1495(18) 0.3418(14)
H32? H 1.21794 0.10898 0.36966
H33? H 1.17187 0.18592 0.34476
N13? N 0.7247(17) 0.3703(16) 0.1318(14)
H34? H 0.68129 0.33624 0.12765
H35? H 0.73460 0.40532 0.10088
W1B W 1.02563(3) -0.16557(3) -0.06884(3)
O1B O 1.0884(6) -0.0605(5) -0.0695(4)
O2B O 0.9434(5) -0.2521(5) -0.0524(5)
O3B O 1.0806(6) -0.1881(5) 0.0160(4)
O4B O 0.9392(6) -0.1129(5) -0.1270(4)
O5B O 1.0860(7) -0.2234(6) -0.1208(5)
O6B O 0.9325(5) -0.1023(5) 0.0025(4)
W2B W 1.15771(4) 0.03563(3) -0.07297(3)
W3B W 0.85142(4) -0.22379(3) 0.00697(3)
W4B W 1.02170(4) -0.14558(3) 0.09019(3)
W5B W 0.84670(4) -0.05574(3) -0.08648(3)
O7B O 1.0717(6) 0.0871(6) -0.1309(4)
O8B O 1.2093(6) 0.0119(6) 0.0122(5)
O9B O 1.2356(7) 0.0013(6) -0.1250(6)
O10B O 1.2065(6) 0.1496(5) -0.0621(5)
O11B O 0.9389(6) -0.2374(5) 0.0755(4)
O12B O 0.7903(6) -0.3148(6) 0.0099(6)
O13B O 0.7979(6) -0.1633(5) -0.0660(5)
O14B O 1.0848(6) -0.0443(5) 0.0847(4)
O15B O 1.0782(7) -0.1925(6) 0.1548(5)
O16B O 0.7766(7) -0.0321(6) -0.1509(6)
Cu1A Cu 0.50033(9) 0.01921(8) 0.25237(9)
Cu1A* Cu 1.50033(9) 0.01921(8) 0.25237(9)
N2A N 0.9151(6) 0.6157(6) 0.2553(6)
N4A N 1.1012(6) 0.6010(5) 0.2536(5)
#END
