
#######################################################################
#
#                 Cambridge Crystallographic Data Centre
#                                CCDC
#
#######################################################################
#
# If this CIF has been generated from an entry in the Cambridge
# Structural Database, then it will include bibliographic, chemical,
# crystal, experimental, refinement or atomic coordinate data resulting
# from the CCDC's data processing and validation procedures.
#
#######################################################################

data_CSD_CIF_ZOCJEI
_audit_creation_date 2014-06-10
_audit_creation_method CSD-ConQuest-V1
_database_code_CSD ZOCJEI
_database_code_depnum_ccdc_archive 'CCDC 857847'
_chemical_formula_sum 'C28 H38 N1 Na2 O13'
_chemical_formula_moiety
;
(C28 H28 N1 Na1 O8 1-)n,n(H10 Na1 O5 1+)
;
_journal_coden_Cambridge 1186
_journal_volume 26
_journal_year 2014
_journal_page_first 392
_journal_name_full 'Supramol.Chem. '
loop_
_publ_author_name
"Md N.Hoque"
"A.Basu"
"G.Das"
_chemical_name_systematic
;
catena-((\m~2~-Aqua)-tetra-aqua-sodium aqua-(hydrogen 
1,1'-(((2-hydroxyethyl)imino)bis(ethane-2,1-diyloxy))bis(2-naphthoato))-sodium
)
;
_cell_volume   3107.279
_exptl_crystal_density_diffrn 1.346
_diffrn_ambient_temperature 298
#These two values have been output from a single CSD field.
_refine_ls_R_factor_gt 0.0642
_refine_ls_wR_factor_gt 0.0642
_symmetry_cell_setting monoclinic
_symmetry_space_group_name_H-M 'P 21/c'
_symmetry_Int_Tables_number 14
loop_
_symmetry_equiv_pos_site_id
_symmetry_equiv_pos_as_xyz
1 x,y,z
2 -x,1/2+y,1/2-z
3 -x,-y,-z
4 x,-1/2-y,-1/2+z
_cell_length_a 17.9123(16)
_cell_length_b 23.198(2)
_cell_length_c 7.4779(9)
_cell_angle_alpha 90
_cell_angle_beta 90.138(7)
_cell_angle_gamma 90
_cell_formula_units_Z 4
loop_
_atom_type_symbol
_atom_type_radius_bond
C 0.68
H 0.23
N 0.68
Na 1.66
O 0.68
loop_
_atom_site_label
_atom_site_type_symbol
_atom_site_fract_x
_atom_site_fract_y
_atom_site_fract_z
N1 N 0.25812(17) 0.52974(13) 0.1150(4)
C1 C 0.2284(2) 0.62316(17) 0.2616(5)
H1 H 0.27910 0.63610 0.24020
H2 H 0.19540 0.65620 0.25420
C2 C 0.2063(2) 0.57870(17) 0.1252(6)
H3 H 0.15690 0.56440 0.15400
H4 H 0.20350 0.59700 0.00860
C3 C 0.1699(2) 0.45135(18) 0.1930(6)
H5 H 0.12790 0.47670 0.21530
H6 H 0.15080 0.41450 0.15210
C4 C 0.2200(2) 0.47717(17) 0.0533(5)
H7 H 0.25720 0.44890 0.01910
H8 H 0.19050 0.48630 -0.05190
C5 C 0.3846(3) 0.5009(2) 0.0023(7)
H9 H 0.36710 0.46440 -0.04500
H10 H 0.42530 0.51420 -0.07260
C6 C 0.3223(2) 0.54414(19) -0.0016(6)
H11 H 0.34190 0.58140 0.03430
H12 H 0.30450 0.54770 -0.12370
O1 O 0.22297(14) 0.59676(10) 0.4356(3)
O2 O 0.21272(13) 0.44373(10) 0.3542(4)
O3 O 0.41101(17) 0.49297(14) 0.1810(5)
H13 H 0.42640 0.52380 0.22030
C7 C 0.2253(2) 0.63596(15) 0.5764(5)
C8 C 0.1551(2) 0.69521(15) 0.7885(5)
C9 C 0.2920(2) 0.65427(16) 0.6490(5)
C10 C 0.1551(2) 0.65561(15) 0.6438(5)
C11 C 0.2892(2) 0.69355(17) 0.7957(6)
H14 H 0.33360 0.70630 0.84680
C12 C 0.0202(3) 0.6976(2) 0.7800(7)
H15 H -0.02490 0.71140 0.82380
C13 C 0.2235(2) 0.71264(17) 0.8624(6)
H16 H 0.22370 0.73780 0.95910
C14 C 0.0863(2) 0.63778(17) 0.5697(6)
H17 H 0.08570 0.61200 0.47450
C15 C 0.0203(2) 0.6584(2) 0.6377(7)
H18 H -0.02470 0.64620 0.58860
C16 C 0.0849(3) 0.71533(19) 0.8540(6)
H19 H 0.08390 0.74110 0.94920
C17 C 0.3678(2) 0.63540(19) 0.5831(6)
O4 O 0.37689(17) 0.58574(16) 0.5318(6)
O5 O 0.41910(19) 0.67119(16) 0.5899(7)
C18 C 0.1864(2) 0.40161(16) 0.4685(6)
C19 C 0.1326(2) 0.41744(19) 0.5992(5)
C20 C 0.2141(2) 0.34701(19) 0.4560(6)
C21 C 0.1030(2) 0.4734(2) 0.6123(6)
H20 H 0.12190 0.50250 0.53960
C22 C 0.1075(2) 0.3743(2) 0.7184(6)
C23 C 0.1889(3) 0.30473(19) 0.5829(7)
H21 H 0.20770 0.26740 0.57880
C24 C 0.0486(3) 0.3900(3) 0.8415(7)
H22 H 0.03020 0.36260 0.92070
C25 C 0.0199(3) 0.4442(3) 0.8431(8)
H23 H -0.01850 0.45300 0.92190
C26 C 0.1381(3) 0.3190(2) 0.7075(7)
H24 H 0.12290 0.29120 0.78910
C27 C 0.0463(3) 0.4859(3) 0.7312(7)
H25 H 0.02610 0.52280 0.73500
C28 C 0.2693(3) 0.33204(18) 0.3136(8)
O6 O 0.2456(2) 0.32843(17) 0.1571(6)
O7 O 0.3353(2) 0.3258(2) 0.3593(6)
Na1 Na 0.31608(8) 0.50940(6) 0.4148(2)
O8 O 0.35724(19) 0.43377(15) 0.5856(6)
Na2 Na 0.45926(11) 0.32492(9) 0.8970(4)
O9 O 0.50060(17) 0.41015(15) 0.7129(5)
O10 O 0.46013(19) 0.37778(15) 1.1934(6)
O11 O 0.5777(2) 0.2893(2) 0.8347(8)
O12 O 0.3328(2) 0.3462(2) 0.8764(7)
O13 O 0.4149(3) 0.2411(2) 1.1116(8)
Na2C Na 0.45926(11) 0.17508(9) 1.3970(4)
O13C O 0.4149(3) 0.2589(2) 0.6116(8)
#END
