
#######################################################################
#
#                 Cambridge Crystallographic Data Centre
#                                CCDC
#
#######################################################################
#
# If this CIF has been generated from an entry in the Cambridge
# Structural Database, then it will include bibliographic, chemical,
# crystal, experimental, refinement or atomic coordinate data resulting
# from the CCDC's data processing and validation procedures.
#
#######################################################################

data_CSD_CIF_ZOFWID
_audit_creation_date 2019-05-09
_audit_creation_method CSD-ConQuest-V1
_database_code_CSD ZOFWID
_database_code_depnum_ccdc_archive 'CCDC 1884012'
_chemical_formula_sum 'C29 H37 N9 O11 Zn2'
_chemical_formula_moiety
;
(C18 H8 N5 O8 Zn2 1-)n,n(C2 H8 N1 1+),3n(C3 H7 N1 O1)
;
_journal_coden_Cambridge 1350
_journal_volume 21
_journal_year 2019
_journal_page_first 3289
_journal_name_full 'CrystEngComm '
loop_
_publ_author_name
"Lifei Zou"
"Jiaqi Yuan"
"Yang Yuan"
"Jiaming Gu"
"Guanghua Li"
"Lirong Zhang"
"Yunling Liu"
_chemical_name_systematic
;
catena-(dimethylammonium 
(\m-2,2'-(diazene-1,2-diyl)di(benzene-1,4-dicarboxylato))-(\m-1,2,4-triazolato
)-di-zinc(ii) dimethylformamide solvate)
;
_cell_volume   4111.782
_exptl_crystal_density_diffrn 1.322
_exptl_crystal_description 'block'
_diffrn_ambient_temperature 293
_refine_special_details
;
The SQUEEZE/PLATON program was used to model the disordered cations and 
solvent molecules.
;
#These two values have been output from a single CSD field.
_refine_ls_R_factor_gt 0.0306
_refine_ls_wR_factor_gt 0.0306
_symmetry_cell_setting monoclinic
_symmetry_space_group_name_H-M 'C 2/m'
_symmetry_Int_Tables_number 12
loop_
_symmetry_equiv_pos_site_id
_symmetry_equiv_pos_as_xyz
1 x,y,z
2 -x,y,-z
3 1/2+x,1/2+y,z
4 1/2-x,1/2+y,-z
5 -x,-y,-z
6 x,-y,z
7 -1/2-x,-1/2-y,-z
8 -1/2+x,-1/2-y,z
_cell_length_a 20.076(5)
_cell_length_b 19.744(4)
_cell_length_c 14.250(3)
_cell_angle_alpha 90
_cell_angle_beta 133.285(6)
_cell_angle_gamma 90
_cell_formula_units_Z 4
loop_
_atom_type_symbol
_atom_type_radius_bond
C 0.68
H 0.23
N 0.68
O 0.68
Zn 1.22
loop_
_atom_site_label
_atom_site_type_symbol
_atom_site_fract_x
_atom_site_fract_y
_atom_site_fract_z
Zn1 Zn 0.50000 0.59563(2) 0.50000
Zn2 Zn 0.47790(3) 0.50000 0.08010(4)
O1 O 0.61161(15) 0.64860(11) 0.6097(2)
O2 O 0.5630(2) 0.69457(14) 0.4316(3)
O3 O 0.88549(16) 0.92827(11) 0.9534(2)
O4 O 0.92328(16) 0.92734(11) 0.8382(2)
N1 N 0.7399(2) 0.73283(13) 0.5248(3)
N2 N 0.48892(15) 0.53446(9) 0.3773(2)
N3 N 0.4754(2) 0.50000 0.2181(3)
C1 C 0.7426(2) 0.76909(15) 0.6140(3)
C2 C 0.6856(3) 0.74670(16) 0.6307(3)
C3 C 0.6935(3) 0.7775(2) 0.7251(4)
H1 H 0.65660 0.76270 0.73850
C4 C 0.7539(3) 0.82905(19) 0.7991(4)
H2 H 0.75690 0.84940 0.86080
C5 C 0.8112(2) 0.85131(16) 0.7822(3)
C6 C 0.8049(2) 0.82100(15) 0.6892(3)
H3 H 0.84250 0.83540 0.67680
C7 C 0.6149(3) 0.69295(17) 0.5480(4)
C8 C 0.8787(2) 0.90710(14) 0.8649(3)
C9 C 0.48118(19) 0.55242(12) 0.2818(3)
H4 H 0.47980 0.59730 0.26070
O1F O 0.88839(15) 0.85140(11) 0.3903(2)
O2F O 0.9370(2) 0.80543(14) 0.5684(3)
O3F O 0.61451(16) 0.57173(11) 0.0466(2)
O4F O 0.57672(16) 0.57266(11) 0.1618(2)
N1F N 0.7601(2) 0.76717(13) 0.4752(3)
C1F C 0.7574(2) 0.73091(15) 0.3860(3)
C2F C 0.8144(3) 0.75330(16) 0.3693(3)
C3F C 0.8065(3) 0.7225(2) 0.2749(4)
H1F H 0.84340 0.73730 0.26150
C4F C 0.7461(3) 0.67095(19) 0.2009(4)
H2F H 0.74310 0.65060 0.13920
C5F C 0.6888(2) 0.64869(16) 0.2178(3)
C6F C 0.6951(2) 0.67900(15) 0.3108(3)
H3F H 0.65750 0.66460 0.32320
C7F C 0.8851(3) 0.80705(17) 0.4520(4)
C8F C 0.6213(2) 0.59290(14) 0.1351(3)
N2E N 0.48892(15) 0.46554(9) 0.3773(2)
C9E C 0.48118(19) 0.44758(12) 0.2818(3)
H4E H 0.47980 0.40270 0.26070
Zn1D Zn 0.50000 0.40437(2) 0.50000
Zn1F Zn 1.00000 0.90437(2) 0.50000
Zn2A Zn 0.52210(3) 0.50000 -0.08010(4)
Zn2B Zn 0.97790(3) 1.00000 1.08010(4)
Zn2C Zn 1.02210(3) 1.00000 0.91990(4)
O1A O 0.38839(15) 0.64860(11) 0.3903(2)
O3B O 0.38549(16) 0.42827(11) -0.0466(2)
O3G O 0.38549(16) 0.57173(11) -0.0466(2)
O4C O 0.57672(16) 0.42734(11) 0.1618(2)
N2A N 0.51108(15) 0.53446(9) 0.6227(2)
#END
