
#######################################################################
#
#                 Cambridge Crystallographic Data Centre
#                                CCDC
#
#######################################################################
#
# If this CIF has been generated from an entry in the Cambridge
# Structural Database, then it will include bibliographic, chemical,
# crystal, experimental, refinement or atomic coordinate data resulting
# from the CCDC's data processing and validation procedures.
#
#######################################################################

data_CSD_CIF_ZOGLOZ
_audit_creation_date 2019-05-09
_audit_creation_method CSD-ConQuest-V1
_database_code_CSD ZOGLOZ
_database_code_depnum_ccdc_archive 'CCDC 1854784'
_chemical_formula_sum 'C16 H16 Cl2 Cu6 N24 O40 P1 W12'
_chemical_formula_moiety
;
(C16 H16 Cl2 Cu6 N24 3+)n,O40 P1 W12 3-
;
_journal_coden_Cambridge 1440
_journal_volume 11
_journal_year 2019
_journal_page_first 16896
_journal_name_full 'ACS Applied Materials and Interfaces '
loop_
_publ_author_name
"Xiao Li"
"Xi-Ya Yang"
"Jing-Quan Sha"
"Tao Han"
"Chun-Jiang Du"
"Yuan-Jie Sun"
"Ya-Qian Lan"
_chemical_name_systematic
;
catena-[octakis(\m-1,2,4-triazol-4-yl)-bis(\m-chloro)-di-copper(i)-tetra-coppe
r(ii) (\m-phosphato)-tetracosakis(\m-oxido)-dodecakis(oxido)-dodeca-tungsten 
unknown solvate]
;
_cell_volume   1804.297
_exptl_crystal_colour 'colorless'
_exptl_crystal_description 'block'
_diffrn_ambient_temperature 296.1
_refine_special_details
;
The structure is disordered. The SQUEEZE/PLATON program has been used to 
model some disorder.
;
#These two values have been output from a single CSD field.
_refine_ls_R_factor_gt 0.075
_refine_ls_wR_factor_gt 0.075
_symmetry_cell_setting triclinic
_symmetry_space_group_name_H-M 'P -1'
_symmetry_Int_Tables_number 2
loop_
_symmetry_equiv_pos_site_id
_symmetry_equiv_pos_as_xyz
1 x,y,z
2 -x,-y,-z
_cell_length_a 11.516(3)
_cell_length_b 12.049(3)
_cell_length_c 14.257(4)
_cell_angle_alpha 94.053(4)
_cell_angle_beta 105.889(4)
_cell_angle_gamma 106.155(4)
_cell_formula_units_Z 1
loop_
_atom_type_symbol
_atom_type_radius_bond
C 0.68
H 0.23
Cl 0.99
Cu 1.32
N 0.68
O 0.68
P 1.05
W 1.62
loop_
_atom_site_label
_atom_site_type_symbol
_atom_site_fract_x
_atom_site_fract_y
_atom_site_fract_z
C1 C 0.232(2) 0.9839(17) 0.2656(15)
H1 H 0.24599 0.97355 0.33129
C2 C -0.059(3) 1.220(3) 0.198(2)
H2 H -0.07035 1.24062 0.25825
C3 C -0.046(3) 1.223(3) 0.051(2)
H3 H -0.04661 1.24464 -0.01047
C4 C -0.034(3) 0.743(3) 0.283(2)
H4 H -0.04612 0.71438 0.21723
C5 C -0.008(2) 0.750(2) 0.4369(17)
H5 H 0.00084 0.72875 0.49926
C6 C 0.256(2) 1.009(2) 0.1286(18)
H6 H 0.29252 1.02189 0.07820
C7 C -0.276(2) 1.0055(19) 0.2537(17)
H7 H -0.30832 1.00001 0.18563
C8 C -0.263(2) 1.0182(18) 0.4039(16)
H8 H -0.28282 1.02371 0.46253
N1 N -0.0049(16) 0.8582(15) 0.4147(13)
N2 N -0.1500(16) 1.0131(14) 0.3962(12)
N3 N -0.0224(17) 0.8513(15) 0.3172(13)
N4 N -0.1600(18) 1.0057(16) 0.2997(14)
N5 N -0.3388(17) 1.0141(15) 0.3159(13)
N6 N 0.3184(19) 1.0012(16) 0.2210(14)
N7 N 0.1230(17) 0.9830(15) 0.2051(13)
N8 N 0.1411(18) 0.9980(16) 0.1189(13)
N9 N -0.0414(18) 1.1255(16) 0.1709(13)
N10 N -0.0329(18) 1.1266(16) 0.0783(14)
N11 N -0.025(2) 0.681(2) 0.3570(17)
N12 N -0.058(3) 1.288(3) 0.126(2)
Cu1 Cu 0.4888(3) 1.0112(3) 0.2775(2)
Cu2 Cu -0.0295(2) 0.9876(2) 0.24256(19)
Cu3 Cu 0.00000 1.00000 0.50000
Cu4 Cu 0.00000 1.00000 0.00000
Cl1 Cl -0.1667(9) 0.8560(9) 0.0788(7)
O1 O 0.1295(15) 1.1045(14) 0.4104(11)
O2 O 0.4551(18) 1.3887(16) 0.5384(14)
O3 O 0.284(3) 1.250(2) 0.3183(19)
O4 O 0.4753(18) 1.5143(16) 0.5950(14)
O5 O 0.5917(18) 1.4285(16) 0.5008(14)
O6 O 0.210(3) 1.542(2) 0.5197(19)
O7 O 0.259(2) 1.680(2) 0.7021(18)
O8 O 0.319(2) 1.4737(18) 0.6784(15)
O9 O 0.506(2) 1.274(2) 0.6600(18)
O10 O 0.395(2) 1.1777(18) 0.4765(15)
O11 O 0.282(2) 1.2695(19) 0.5764(16)
O12 O 0.362(3) 1.293(2) 0.778(2)
O13 O 0.9682(18) 1.5162(16) 0.6718(14)
O14 O 0.761(3) 1.552(2) 0.719(2)
O15 O 0.507(2) 1.6756(15) 0.7227(16)
O16 O 0.600(2) 1.1111(19) 0.5796(16)
O17 O 0.556(2) 1.4812(15) 0.7642(17)
O18 O 0.731(2) 1.6909(19) 0.8697(15)
O19 O 0.610(2) 1.254(2) 0.4370(17)
O20 O 0.730(2) 1.350(2) 0.6192(17)
O21 O 0.6318(19) 1.5763(17) 0.5828(14)
O22 O 0.160(3) 1.339(2) 0.418(2)
P1 P 0.50000 1.50000 0.50000
W1 W 0.25323(10) 1.23258(8) 0.43877(9)
W2 W 0.40495(10) 1.36099(9) 0.69007(7)
W3 W 0.56813(9) 1.23659(8) 0.55407(8)
W4 W 0.33643(9) 1.62443(9) 0.63606(9)
W5 W 0.65415(12) 1.63014(10) 0.75081(8)
W6 W 0.81545(10) 1.50761(11) 0.61393(10)
C1A C -0.232(2) 1.0161(17) -0.2656(15)
H1A H -0.24599 1.02645 -0.33129
C2A C 0.059(3) 0.780(3) -0.198(2)
H2A H 0.07035 0.75938 -0.25825
C3A C 0.046(3) 0.777(3) -0.051(2)
H3A H 0.04661 0.75536 0.01047
C4A C 0.034(3) 1.257(3) -0.283(2)
H4A H 0.04612 1.28562 -0.21723
C5A C 0.008(2) 1.250(2) -0.4369(17)
H5A H -0.00084 1.27125 -0.49926
C6A C -0.256(2) 0.991(2) -0.1286(18)
H6A H -0.29252 0.97811 -0.07820
C7A C 0.276(2) 0.9945(19) -0.2537(17)
H7A H 0.30832 0.99999 -0.18563
C8A C 0.263(2) 0.9818(18) -0.4039(16)
H8A H 0.28282 0.97629 -0.46253
N1A N 0.0049(16) 1.1418(15) -0.4147(13)
N2A N 0.1500(16) 0.9869(14) -0.3962(12)
N3A N 0.0224(17) 1.1487(15) -0.3172(13)
N4A N 0.1600(18) 0.9943(16) -0.2997(14)
N5A N 0.3388(17) 0.9859(15) -0.3159(13)
N6A N -0.3184(19) 0.9988(16) -0.2210(14)
N7A N -0.1230(17) 1.0170(15) -0.2051(13)
N8A N -0.1411(18) 1.0020(16) -0.1189(13)
N9A N 0.0414(18) 0.8745(16) -0.1709(13)
N10A N 0.0329(18) 0.8734(16) -0.0783(14)
N11A N 0.025(2) 1.319(2) -0.3570(17)
N12A N 0.058(3) 0.712(3) -0.126(2)
Cu1A Cu -0.4888(3) 0.9888(3) -0.2775(2)
Cu2A Cu 0.0295(2) 1.0124(2) -0.24256(19)
Cl1A Cl 0.1667(9) 1.1440(9) -0.0788(7)
N1A* N 0.0049(16) 1.1418(15) 0.5853(13)
N2A* N 0.1500(16) 0.9869(14) 0.6038(12)
N5* N 0.6612(17) 1.0141(15) 0.3159(13)
N5A* N -0.6612(17) 0.9859(15) -0.3159(13)
Cu1* Cu -0.5112(3) 1.0112(3) 0.2775(2)
Cu1A* Cu 0.5112(3) 0.9888(3) -0.2775(2)
Cu3* Cu 0.00000 1.00000 -0.50000
O2A O 0.5449(18) 1.6113(16) 0.4616(14)
O4A O 0.5247(18) 1.4857(16) 0.4050(14)
O5A O 0.4083(18) 1.5715(16) 0.4992(14)
O21A O 0.3682(19) 1.4237(17) 0.4172(14)
O1A O 0.8705(15) 1.8955(14) 0.5896(11)
O3A O 0.716(3) 1.750(2) 0.6817(19)
O6A O 0.790(3) 1.458(2) 0.4803(19)
O7A O 0.741(2) 1.320(2) 0.2979(18)
O8A O 0.681(2) 1.5263(18) 0.3216(15)
O9A O 0.494(2) 1.726(2) 0.3400(18)
O10A O 0.605(2) 1.8223(18) 0.5235(15)
O11A O 0.718(2) 1.7305(19) 0.4236(16)
O12A O 0.638(3) 1.707(2) 0.222(2)
O13A O 0.0318(18) 1.4838(16) 0.3282(14)
O14A O 0.239(3) 1.448(2) 0.281(2)
O15A O 0.493(2) 1.3244(15) 0.2773(16)
O16A O 0.400(2) 1.8889(19) 0.4204(16)
O17A O 0.444(2) 1.5188(15) 0.2358(17)
O18A O 0.269(2) 1.3091(19) 0.1303(15)
O19A O 0.390(2) 1.746(2) 0.5630(17)
O20A O 0.270(2) 1.650(2) 0.3808(17)
O22A O 0.840(3) 1.661(2) 0.582(2)
W1A W 0.74677(10) 1.76742(8) 0.56123(9)
W2A W 0.59505(10) 1.63901(9) 0.30993(7)
W3A W 0.43187(9) 1.76341(8) 0.44593(8)
W4A W 0.66357(9) 1.37557(9) 0.36394(9)
W5A W 0.34585(12) 1.36986(10) 0.24919(8)
W6A W 0.18455(10) 1.49239(11) 0.38607(10)
#END
