
#######################################################################
#
#                 Cambridge Crystallographic Data Centre
#                                CCDC
#
#######################################################################
#
# If this CIF has been generated from an entry in the Cambridge
# Structural Database, then it will include bibliographic, chemical,
# crystal, experimental, refinement or atomic coordinate data resulting
# from the CCDC's data processing and validation procedures.
#
#######################################################################

data_CSD_CIF_ZOGSEW
_audit_creation_date 2019-05-09
_audit_creation_method CSD-ConQuest-V1
_database_code_CSD ZOGSEW
_database_code_depnum_ccdc_archive 'CCDC 1884547'
_chemical_formula_sum 'C32 H45 N9 O14 U1'
_chemical_formula_moiety
;
(C24 H15 N6 O8 U1 1-)n,C2 H8 N1 1+,2(C3 H7 N1 O1),4(H2 O1)
;
_journal_coden_Cambridge 9
_journal_volume 58
_journal_year 2019
_journal_page_first 6866
_journal_name_full 'Inorg.Chem. '
loop_
_publ_author_name
"Na Zhang"
"Yong-Heng Xing"
"Feng-Ying Bai"
_chemical_name_systematic
;
catena-[dimethylammonium 
(\m-4,4',4''-(1,3,5-triazine-2,4,6-triyltriazanediyl)tribenzoato)-dioxo-uraniu
m(vi) N,N-dimethylformamide solvate tetrahydrate]
;
_chemical_name_common
;
U-TATAB
;
_cell_volume   7624.590
_exptl_crystal_colour 'yellow'
_exptl_crystal_density_diffrn 1.313
_exptl_crystal_description 'block'
_diffrn_ambient_temperature 296
_refine_special_details
;
Disordered cation and solvent molecules were not modelled and the disordered 
density was taken into account using the SQUEEZE/PLATON procedure.
;
#These two values have been output from a single CSD field.
_refine_ls_R_factor_gt 0.0648
_refine_ls_wR_factor_gt 0.0648
_symmetry_cell_setting monoclinic
_symmetry_space_group_name_H-M 'C 2/c'
_symmetry_Int_Tables_number 15
loop_
_symmetry_equiv_pos_site_id
_symmetry_equiv_pos_as_xyz
1 x,y,z
2 -x,y,1/2-z
3 1/2+x,1/2+y,z
4 1/2-x,1/2+y,1/2-z
5 -x,-y,-z
6 x,-y,-1/2+z
7 -1/2-x,-1/2-y,-z
8 -1/2+x,-1/2-y,-1/2+z
_cell_length_a 31.3908(17)
_cell_length_b 18.5386(10)
_cell_length_c 13.1433(8)
_cell_angle_alpha 90
_cell_angle_beta 94.544(3)
_cell_angle_gamma 90
_cell_formula_units_Z 8
loop_
_atom_type_symbol
_atom_type_radius_bond
C 0.68
H 0.23
N 0.68
O 0.68
U 1.96
loop_
_atom_site_label
_atom_site_type_symbol
_atom_site_fract_x
_atom_site_fract_y
_atom_site_fract_z
U1 U 0.63232(2) 0.84603(2) 0.11493(3)
O1 O 0.62335(18) 0.8462(3) -0.0211(5)
O2 O 0.6411(2) 0.8463(3) 0.2495(5)
O3 O 0.64159(18) 0.7163(3) 0.1231(6)
O4 O 0.57604(18) 0.7553(3) 0.1247(5)
O5 O 0.19510(18) 0.4250(3) 0.1064(5)
O6 O 0.20616(19) 0.3084(3) 0.1029(6)
O7 O 0.61500(19) -0.0248(3) 0.1148(6)
O8 O 0.56200(19) -0.0979(3) 0.1357(5)
N1 N 0.4712(2) 0.4230(3) 0.1295(6)
N2 N 0.4307(2) 0.3138(4) 0.1265(6)
N3 N 0.5067(2) 0.3105(3) 0.1176(6)
N4 N 0.5449(2) 0.4141(3) 0.1209(6)
H1 H 0.56541 0.38394 0.11479
N5 N 0.3991(2) 0.4269(3) 0.1309(6)
H2 H 0.40430 0.47234 0.13694
N6 N 0.4641(2) 0.2054(3) 0.1205(6)
H3 H 0.43810 0.19092 0.12004
C1 C 0.6016(3) 0.7032(5) 0.1251(8)
C2 C 0.5860(3) 0.6262(4) 0.1266(7)
C3 C 0.6004(3) 0.5000(4) 0.1250(7)
H4 H 0.61974 0.46220 0.12235
C4 C 0.5290(3) 0.5434(4) 0.1301(7)
H5 H 0.49997 0.53434 0.13279
C5 C 0.6146(3) 0.5704(5) 0.1271(8)
H6 H 0.64377 0.57995 0.12890
C6 C 0.5431(3) 0.6129(5) 0.1297(8)
H7 H 0.52389 0.65095 0.13147
C7 C 0.5573(2) 0.4857(4) 0.1267(6)
C8 C 0.5057(3) 0.3839(5) 0.1232(7)
C9 C 0.4681(3) 0.2791(4) 0.1214(7)
C10 C 0.4348(3) 0.3850(4) 0.1298(7)
C11 C 0.4931(2) 0.1500(4) 0.1201(7)
C12 C 0.5030(3) 0.0211(4) 0.1206(7)
H8 H 0.49152 -0.02518 0.12025
C13 C 0.5377(3) 0.1617(4) 0.1251(8)
H9 H 0.54944 0.20784 0.12758
C14 C 0.4768(3) 0.0789(4) 0.1175(7)
H10 H 0.44741 0.07182 0.11351
C15 C 0.5634(3) 0.0993(4) 0.1262(7)
H11 H 0.59293 0.10490 0.12823
C16 C 0.5470(3) 0.0302(4) 0.1243(7)
C17 C 0.5756(3) -0.0333(4) 0.1243(7)
C18 C 0.3394(3) 0.3399(5) 0.1098(10)
H12 H 0.35776 0.30084 0.10475
C19 C 0.3560(2) 0.4097(4) 0.1241(7)
C20 C 0.2831(3) 0.4552(5) 0.1176(8)
H13 H 0.26463 0.49436 0.11870
C21 C 0.2679(3) 0.3862(4) 0.1095(7)
C22 C 0.2957(3) 0.3293(4) 0.1031(9)
H14 H 0.28490 0.28287 0.09419
C23 C 0.3273(3) 0.4648(5) 0.1240(9)
H15 H 0.33777 0.51172 0.12858
C24 C 0.2204(3) 0.3721(5) 0.1040(8)
U1* U 0.63232(2) -0.15397(2) 0.11493(3)
U1B U 0.13232(2) 0.34603(2) 0.11493(3)
O5B O 0.69510(18) 0.9250(3) 0.1064(5)
O6B O 0.70616(19) 0.8084(3) 0.1029(6)
O7* O 0.61500(19) 0.9752(3) 0.1148(6)
O8* O 0.56200(19) 0.9021(3) 0.1357(5)
#END
