
#######################################################################
#
#                 Cambridge Crystallographic Data Centre
#                                CCDC
#
#######################################################################
#
# If this CIF has been generated from an entry in the Cambridge
# Structural Database, then it will include bibliographic, chemical,
# crystal, experimental, refinement or atomic coordinate data resulting
# from the CCDC's data processing and validation procedures.
#
#######################################################################

data_CSD_CIF_ZOMSAV
_audit_creation_date 1996-08-19
_audit_creation_method CSD-ConQuest-V1
_database_code_CSD ZOMSAV
_database_code_depnum_ccdc_archive 'CCDC 1314738'
_database_code_depnum_ccdc_fiz 'CSD 404108'
_chemical_formula_sum 'C8 H27 N3 P7 Rb1'
_chemical_formula_moiety
;
(C4 H12 N1 1+)2n,n(H3 N1),n(P7 Rb1 2-)
;
_journal_coden_Cambridge 48
_journal_volume 129
_journal_year 1996
_journal_page_first 155
_journal_name_full 'Chem.Ber. '
loop_
_publ_author_name
"N.Korber"
"H.G.von Schnering"
_chemical_name_systematic
;
catena-(bis(Tetramethylammonium) heptaphosphanotricyclane-rubidium ammonia 
solvate)
;
_cell_volume   2027.160
_exptl_crystal_colour 'yellow'
_exptl_crystal_density_diffrn 1.532
_exptl_crystal_description 'block'
_diffrn_ambient_temperature 190
#These two values have been output from a single CSD field.
_refine_ls_R_factor_gt 0.033
_refine_ls_wR_factor_gt 0.033
_symmetry_cell_setting monoclinic
_symmetry_space_group_name_H-M 'P 21/c'
_symmetry_Int_Tables_number 14
loop_
_symmetry_equiv_pos_site_id
_symmetry_equiv_pos_as_xyz
1 x,y,z
2 -x,1/2+y,1/2-z
3 -x,-y,-z
4 x,-1/2-y,-1/2+z
_cell_length_a 13.002(1)
_cell_length_b 8.509(1)
_cell_length_c 18.625(2)
_cell_angle_alpha 90
_cell_angle_beta 100.33(1)
_cell_angle_gamma 90
_cell_formula_units_Z 4
loop_
_atom_type_symbol
_atom_type_radius_bond
C 0.68
H 0.23
N 0.68
P 1.05
Rb 2.39
loop_
_atom_site_label
_atom_site_type_symbol
_atom_site_fract_x
_atom_site_fract_y
_atom_site_fract_z
Rb1 Rb 0.07092(2) 0.23356(3) -0.002676(13)
P1 P -0.17841(5) 0.14106(7) 0.03310(3)
P2 P -0.38739(5) 0.19410(9) -0.10424(3)
P3 P -0.16116(5) 0.41413(7) -0.10504(3)
P4 P -0.32507(5) 0.42185(7) -0.07845(4)
P5 P -0.14338(5) 0.18198(8) -0.14256(3)
P6 P -0.18589(5) 0.38655(7) 0.01346(3)
P7 P -0.24326(5) 0.06117(7) -0.07743(3)
N1 N 0.12820(15) 0.2378(2) 0.25831(10)
C1 C 0.1209(2) 0.3889(3) 0.29838(13)
H1 H 0.1291(18) 0.4693(28) 0.2662(12)
H2 H 0.1708(22) 0.392(3) 0.3355(15)
H3 H 0.0550(23) 0.3892(31) 0.3122(14)
C2 C 0.2313(2) 0.2309(3) 0.23419(14)
H4 H 0.2334(21) 0.3155(32) 0.2052(15)
H5 H 0.2295(20) 0.1389(31) 0.2095(14)
H6 H 0.2840(24) 0.2338(26) 0.2748(16)
C3 C 0.0414(2) 0.2307(3) 0.19380(13)
H7 H 0.0488(21) 0.3213(31) 0.1632(14)
H8 H -0.0282(24) 0.2337(26) 0.2086(15)
H9 H 0.0512(20) 0.1364(32) 0.1720(14)
C4 C 0.1193(2) 0.1022(3) 0.30818(13)
H10 H 0.0541(21) 0.1102(28) 0.3191(13)
H11 H 0.1727(22) 0.1082(30) 0.3483(14)
H12 H 0.1280(19) 0.0079(29) 0.2824(13)
N2 N 0.56571(15) 0.2337(2) 0.16064(10)
C5 C 0.6208(2) 0.3868(3) 0.1763(2)
H13 H 0.5770(25) 0.4648(36) 0.1601(16)
H14 H 0.6780(25) 0.3839(34) 0.1484(16)
H15 H 0.6446(30) 0.3906(45) 0.2279(21)
C6 C 0.5348(2) 0.2137(3) 0.07962(13)
H16 H 0.4937(24) 0.2937(32) 0.0609(16)
H17 H 0.5002(21) 0.1162(34) 0.0717(14)
H18 H 0.5977(27) 0.2139(32) 0.0583(16)
C7 C 0.4704(2) 0.2313(3) 0.1950(2)
H19 H 0.4303(27) 0.3201(38) 0.1746(17)
H20 H 0.4899(25) 0.2417(26) 0.2462(18)
H21 H 0.4391(26) 0.1337(39) 0.1819(17)
C8 C 0.6368(2) 0.1038(3) 0.1910(2)
H22 H 0.6899(26) 0.1057(38) 0.1645(17)
H23 H 0.5986(23) 0.0041(36) 0.1809(15)
H24 H 0.6602(24) 0.1193(36) 0.2411(18)
N3 N -0.3340(2) 0.7634(3) 0.0701(2)
H25 H -0.3995(32) 0.7676(34) 0.0722(18)
H26 H -0.3281(36) 0.6792(52) 0.0450(23)
H27 H -0.3191(33) 0.8453(51) 0.0465(21)
P1B P 0.17841(5) -0.14106(7) -0.03310(3)
P3B P 0.16116(5) 0.58587(7) 0.10504(3)
P6B P 0.18589(5) 0.61345(7) -0.01346(3)
P7B P 0.24326(5) -0.06117(7) 0.07743(3)
Rb1B Rb -0.07092(2) -0.23356(3) 0.002676(13)
Rb1B* Rb -0.07092(2) 0.76644(3) 0.002676(13)
#END
