
#######################################################################
#
#                 Cambridge Crystallographic Data Centre
#                                CCDC
#
#######################################################################
#
# If this CIF has been generated from an entry in the Cambridge
# Structural Database, then it will include bibliographic, chemical,
# crystal, experimental, refinement or atomic coordinate data resulting
# from the CCDC's data processing and validation procedures.
#
#######################################################################

data_CSD_CIF_ZONCEM
_audit_creation_date 2014-11-12
_audit_creation_method CSD-ConQuest-V1
_database_code_CSD ZONCEM
_database_code_depnum_ccdc_archive 'CCDC 981465'
_chemical_formula_sum 'C40 H40 K2 N2 O16 Zn2'
_chemical_formula_moiety
;
(C36 H24 K2 O16 Zn2 2-)n,2n(C2 H8 N1 1+)
;
_journal_coden_Cambridge 603
_journal_volume 33
_journal_year 2014
_journal_page_first 1191
_journal_name_full 'Jiegou Huaxue(Chin.)(Chin.J.Struct.Chem.) '
loop_
_publ_author_name
"Li-Ping Xue"
"Yue-Cheng Liu"
"Yun-Hu Han"
"Chong-Bin Tain"
"Qi-Peng Li"
"Ping Lin"
"Shao-Wu Du"
_chemical_name_systematic
;
catena-(bis(Dimethylammonium) 
bis(\m~5~-5-methylisophthalato-O,O,O',O'',O'',O''')-bis(\m~5~-5-methylisophtha
lato-O,O,O',O'',O''')-di-potassium-di-zinc)
;
_cell_volume   2242.438
_exptl_crystal_colour 'white'
_exptl_crystal_density_diffrn 1.501
_exptl_crystal_description 'Prism'
_diffrn_ambient_temperature 293
#These two values have been output from a single CSD field.
_refine_ls_R_factor_gt 0.0435
_refine_ls_wR_factor_gt 0.0435
_symmetry_cell_setting monoclinic
_symmetry_space_group_name_H-M 'P 2/c'
_symmetry_Int_Tables_number 13
loop_
_symmetry_equiv_pos_site_id
_symmetry_equiv_pos_as_xyz
1 x,y,z
2 -x,y,1/2-z
3 -x,-y,-z
4 x,-y,-1/2+z
_cell_length_a 13.910(2)
_cell_length_b 14.0109(15)
_cell_length_c 12.367(2)
_cell_angle_alpha 90
_cell_angle_beta 111.505(8)
_cell_angle_gamma 90
_cell_formula_units_Z 2
loop_
_atom_type_symbol
_atom_type_radius_bond
C 0.68
H 0.23
K 2.03
N 0.68
O 0.68
Zn 1.22
loop_
_atom_site_label
_atom_site_type_symbol
_atom_site_fract_x
_atom_site_fract_y
_atom_site_fract_z
Zn1 Zn 0.00000 0.37962(3) 0.75000
Zn2 Zn 0.50000 -0.13116(3) 0.75000
K1 K 0.50000 1.00000 1.00000
K2 K 0.00000 0.50000 0.50000
O1 O 0.10778(13) 0.46564(12) 0.85688(15)
O2 O 0.03074(14) 0.32329(13) 0.60477(18)
O3 O 0.39149(14) -0.05141(13) 0.63525(16)
O4 O 0.41873(16) 0.77612(14) 0.80249(18)
O5 O 0.12143(16) 0.25831(16) 0.77078(18)
C1 C 0.0961(2) 0.26316(18) 0.6623(3)
O6 O 0.51523(16) 0.80808(15) 0.98543(19)
O7 O 0.36347(17) -0.00312(16) 0.79185(18)
O8 O 0.13854(16) 0.53687(16) 0.71159(17)
C2 C 0.4416(2) 0.76645(19) 0.9110(3)
C3 C 0.25609(19) 0.57742(18) 1.0229(2)
H1 H 0.21640 0.53560 1.04760
C4 C 0.3753(2) 0.69990(18) 0.9487(2)
C5 C 0.1198(2) 0.20087(19) 0.4818(2)
H2 H 0.07120 0.24520 0.43830
C6 C 0.15532(19) 0.52524(18) 0.8155(2)
C7 C 0.3900(2) 0.69369(19) 1.0662(2)
H3 H 0.44020 0.73140 1.11950
C8 C 0.1445(2) 0.19618(18) 0.6019(2)
C9 C 0.23863(18) 0.58344(17) 0.9048(2)
C10 C 0.29960(19) 0.64508(18) 0.8686(2)
H4 H 0.28930 0.64940 0.79010
C11 C 0.26480(19) 0.06911(18) 0.6128(2)
C12 C 0.34528(19) 0.00081(18) 0.6870(2)
C13 C 0.1663(2) 0.1407(2) 0.4260(2)
C14 C 0.2392(2) 0.0750(2) 0.4930(2)
H5 H 0.27120 0.03450 0.45700
C15 C 0.3312(2) 0.63230(19) 1.1052(2)
C16 C 0.2162(2) 0.12967(18) 0.6661(2)
H6 H 0.23210 0.12530 0.74590
C17 C 0.3480(3) 0.6242(3) 1.2326(3)
H7 H 0.40220 0.66690 1.27660
H8 H 0.36700 0.55980 1.25820
H9 H 0.28530 0.64070 1.24390
C18 C 0.1425(3) 0.1465(3) 0.2972(3)
H10 H 0.18230 0.09950 0.27550
H11 H 0.15970 0.20890 0.27790
H12 H 0.07020 0.13470 0.25600
N1 N 0.2731(2) 0.2381(2) 0.9860(3)
C19 C 0.2022(3) 0.1998(4) 1.0394(4)
H13 H 0.17900 0.13750 1.00840
H14 H 0.14380 0.24150 1.02270
H15 H 0.23760 0.19540 1.12210
C20 C 0.3120(4) 0.3337(3) 1.0277(4)
H16 H 0.35720 0.35490 0.98970
H17 H 0.34930 0.33160 1.11020
H18 H 0.25490 0.37710 1.01070
H19 H 0.227(4) 0.241(3) 0.907(4)
H20 H 0.332(4) 0.195(4) 1.003(4)
O1A O -0.10778(13) 0.46564(12) 0.64312(15)
O2A O -0.03074(14) 0.32329(13) 0.89523(18)
O3A O -0.39149(14) -0.05141(13) 0.86475(16)
O4A O -0.41873(16) 0.77612(14) 0.69751(18)
O5A O -0.12143(16) 0.25831(16) 0.72922(18)
C1A C -0.0961(2) 0.26316(18) 0.8377(3)
O6A O -0.51523(16) 0.80808(15) 0.51457(19)
O7A O -0.36347(17) -0.00312(16) 0.70815(18)
O8A O -0.13854(16) 0.53687(16) 0.78841(17)
C2A C -0.4416(2) 0.76645(19) 0.5890(3)
C3A C -0.25609(19) 0.57742(18) 0.4771(2)
H1A H -0.21640 0.53560 0.45240
C4A C -0.3753(2) 0.69990(18) 0.5513(2)
C5A C -0.1198(2) 0.20087(19) 1.0182(2)
H2A H -0.07120 0.24520 1.06170
C6A C -0.15532(19) 0.52524(18) 0.6845(2)
C7A C -0.3900(2) 0.69369(19) 0.4338(2)
H3A H -0.44020 0.73140 0.38050
C8A C -0.1445(2) 0.19618(18) 0.8981(2)
C9A C -0.23863(18) 0.58344(17) 0.5952(2)
C10A C -0.29960(19) 0.64508(18) 0.6314(2)
H4A H -0.28930 0.64940 0.70990
C11A C -0.26480(19) 0.06911(18) 0.8872(2)
C12A C -0.34528(19) 0.00081(18) 0.8130(2)
C13A C -0.1663(2) 0.1407(2) 1.0740(2)
C14A C -0.2392(2) 0.0750(2) 1.0070(2)
H5A H -0.27120 0.03450 1.04300
C15A C -0.3312(2) 0.63230(19) 0.3948(2)
C16A C -0.2162(2) 0.12967(18) 0.8339(2)
H6A H -0.23210 0.12530 0.75410
C17A C -0.3480(3) 0.6242(3) 0.2674(3)
H7A H -0.40220 0.66690 0.22340
H8A H -0.36700 0.55980 0.24180
H9A H -0.28530 0.64070 0.25610
C18A C -0.1425(3) 0.1465(3) 1.2028(3)
H10A H -0.18230 0.09950 1.22450
H11A H -0.15970 0.20890 1.22210
H12A H -0.07020 0.13470 1.24400
Zn2* Zn -0.50000 -0.13116(3) 0.75000
Zn2** Zn -0.50000 0.86884(3) 0.75000
Zn2*** Zn 0.50000 0.86884(3) 0.75000
K1* K -0.50000 0.00000 1.00000
K1** K 0.50000 0.00000 1.00000
K1A K -0.50000 0.00000 0.50000
K1A* K -0.50000 1.00000 0.50000
K1A** K 0.50000 0.00000 0.50000
K2A K 0.00000 0.50000 1.00000
O1C O 0.10778(13) 0.53436(12) 0.35688(15)
O2B O -0.03074(14) 0.67671(13) 0.39523(18)
O3A* O 0.60851(14) -0.05141(13) 0.86475(16)
O3A** O 0.60851(14) 0.94859(13) 0.86475(16)
O3C O 0.39149(14) 1.05141(13) 1.13525(16)
O4* O 0.41873(16) -0.22388(14) 0.80249(18)
O4A* O 0.58127(16) -0.22388(14) 0.69751(18)
O6B O 0.48477(16) 1.19192(15) 1.01457(19)
O7* O 0.36347(17) 0.99688(16) 0.79185(18)
O7B O 0.63653(17) 1.00312(16) 1.20815(18)
O8B O -0.13854(16) 0.46313(16) 0.28841(17)
#END
