
#######################################################################
#
#                 Cambridge Crystallographic Data Centre
#                                CCDC
#
#######################################################################
#
# If this CIF has been generated from an entry in the Cambridge
# Structural Database, then it will include bibliographic, chemical,
# crystal, experimental, refinement or atomic coordinate data resulting
# from the CCDC's data processing and validation procedures.
#
#######################################################################

data_CSD_CIF_ZONCIQ
_audit_creation_date 2014-11-12
_audit_creation_method CSD-ConQuest-V1
_database_code_CSD ZONCIQ
_database_code_depnum_ccdc_archive 'CCDC 981466'
_chemical_formula_sum 'C40 H40 N2 O16 Rb2 Zn2'
_chemical_formula_moiety
;
(C36 H24 O16 Rb2 Zn2 2-)n,2n(C2 H8 N1 1+)
;
_journal_coden_Cambridge 603
_journal_volume 33
_journal_year 2014
_journal_page_first 1191
_journal_name_full 'Jiegou Huaxue(Chin.)(Chin.J.Struct.Chem.) '
loop_
_publ_author_name
"Li-Ping Xue"
"Yue-Cheng Liu"
"Yun-Hu Han"
"Chong-Bin Tain"
"Qi-Peng Li"
"Ping Lin"
"Shao-Wu Du"
_chemical_name_systematic
;
catena-(bis(Dimethylammonium) 
bis(\m~5~-5-methylisophthalato-O,O,O',O'',O'',O''')-bis(\m~5~-5-methylisophtha
lato-O,O,O',O'',O''')-di-rubidium-di-zinc)
;
_cell_volume   2312.817
_exptl_crystal_colour 'colorless'
_exptl_crystal_density_diffrn 1.589
_exptl_crystal_description 'Prism'
_diffrn_ambient_temperature 293
#These two values have been output from a single CSD field.
_refine_ls_R_factor_gt 0.039
_refine_ls_wR_factor_gt 0.039
_symmetry_cell_setting monoclinic
_symmetry_space_group_name_H-M 'P 2/c'
_symmetry_Int_Tables_number 13
loop_
_symmetry_equiv_pos_site_id
_symmetry_equiv_pos_as_xyz
1 x,y,z
2 -x,y,1/2-z
3 -x,-y,-z
4 x,-y,-1/2+z
_cell_length_a 13.899(6)
_cell_length_b 14.046(6)
_cell_length_c 12.728(6)
_cell_angle_alpha 90
_cell_angle_beta 111.444(4)
_cell_angle_gamma 90
_cell_formula_units_Z 2
loop_
_atom_type_symbol
_atom_type_radius_bond
C 0.68
H 0.23
N 0.68
O 0.68
Rb 2.20
Zn 1.22
loop_
_atom_site_label
_atom_site_type_symbol
_atom_site_fract_x
_atom_site_fract_y
_atom_site_fract_z
Zn1 Zn -0.50000 0.62105(2) 0.25000
Zn2 Zn 0.00000 0.13699(2) 0.25000
Rb1 Rb -0.50000 0.50000 0.00000
Rb2 Rb 0.00000 1.00000 0.50000
C1 C -0.24216(19) 0.42554(17) 0.5178(2)
H1 H -0.28240 0.46680 0.54170
C2 C -0.1572(2) 1.00641(16) 0.1886(2)
C3 C -0.2603(2) 0.92679(18) 0.0021(2)
H2 H -0.22900 0.96670 -0.03420
C4 C -0.25888(19) 0.42031(16) 0.4034(2)
C5 C -0.34204(19) 0.47728(17) 0.3159(2)
C6 C -0.3988(2) 0.74260(17) 0.1742(2)
C7 C -0.23560(19) 0.93605(17) 0.1174(2)
C8 C -0.3309(2) 0.85906(18) -0.0604(2)
C9 C -0.1980(2) 0.35940(16) 0.3679(2)
H3 H -0.20850 0.35510 0.29160
C10 C -0.1672(2) 0.37108(19) 0.5973(2)
C11 C -0.2822(2) 0.87557(17) 0.1714(2)
H4 H -0.26590 0.88120 0.24880
C12 C -0.37625(19) 0.79982(18) -0.0040(2)
H5 H -0.42360 0.75400 -0.04460
C13 C -0.35228(19) 0.80756(16) 0.1116(2)
C14 C -0.1075(2) 0.31039(18) 0.5595(2)
H6 H -0.05710 0.27280 0.61120
C15 C -0.12203(19) 0.30516(16) 0.4455(2)
C16 C -0.1514(3) 0.3773(3) 0.7208(3)
H7 H -0.09650 0.33520 0.76320
H8 H -0.21400 0.35920 0.73110
H9 H -0.13360 0.44150 0.74670
C17 C -0.0545(2) 0.23949(16) 0.4091(2)
C18 C -0.3552(3) 0.8495(2) -0.1853(2)
H10 H -0.29200 0.84410 -0.19910
H11 H -0.39260 0.90470 -0.22340
H12 H -0.39650 0.79360 -0.21290
O1 O -0.39053(13) 0.53747(12) 0.35424(14)
O2 O -0.11042(13) 1.05803(12) 0.13825(15)
O3 O -0.14125(18) 1.01304(15) 0.28956(17)
O4 O -0.35835(17) 0.46479(16) 0.21561(16)
O5 O -0.07923(16) 0.22927(14) 0.30348(18)
O6 O -0.46387(14) 0.68091(12) 0.11994(16)
O7 O -0.37246(16) 0.75009(15) 0.27861(17)
O8 O 0.02012(16) 0.19992(15) 0.48075(19)
C19 C -0.3044(4) 0.7990(4) 0.5451(4)
H13 H -0.32620 0.86260 0.52010
H14 H -0.27050 0.79850 0.62580
H15 H -0.36350 0.75780 0.52370
C20 C -0.1962(4) 0.6691(3) 0.5276(4)
H16 H -0.14940 0.65050 0.49150
H17 H -0.25400 0.62620 0.50590
H18 H -0.16110 0.66700 0.60810
N1 N -0.2329(3) 0.7658(2) 0.4934(3)
H19 H -0.269(3) 0.763(3) 0.424(4)
H20 H -0.177(4) 0.797(3) 0.518(4)
C1A C -0.75784(19) 0.42554(17) -0.0178(2)
H1A H -0.71760 0.46680 -0.04170
C2A C -0.8428(2) 1.00641(16) 0.3114(2)
C3A C -0.7397(2) 0.92679(18) 0.4979(2)
H2A H -0.77100 0.96670 0.53420
C4A C -0.74112(19) 0.42031(16) 0.0966(2)
C5A C -0.65796(19) 0.47728(17) 0.1841(2)
C6A C -0.6012(2) 0.74260(17) 0.3258(2)
C7A C -0.76440(19) 0.93605(17) 0.3826(2)
C8A C -0.6691(2) 0.85906(18) 0.5604(2)
C9A C -0.8020(2) 0.35940(16) 0.1321(2)
H3A H -0.79150 0.35510 0.20840
C10A C -0.8328(2) 0.37108(19) -0.0973(2)
C11A C -0.7178(2) 0.87557(17) 0.3286(2)
H4A H -0.73410 0.88120 0.25120
C12A C -0.62375(19) 0.79982(18) 0.5040(2)
H5A H -0.57640 0.75400 0.54460
C13A C -0.64772(19) 0.80756(16) 0.3884(2)
C14A C -0.8925(2) 0.31039(18) -0.0595(2)
H6A H -0.94290 0.27280 -0.11120
C15A C -0.87797(19) 0.30516(16) 0.0545(2)
C16A C -0.8486(3) 0.3773(3) -0.2208(3)
H7A H -0.90350 0.33520 -0.26320
H8A H -0.78600 0.35920 -0.23110
H9A H -0.86640 0.44150 -0.24670
C17A C -0.9455(2) 0.23949(16) 0.0909(2)
C18A C -0.6448(3) 0.8495(2) 0.6853(2)
H10A H -0.70800 0.84410 0.69910
H11A H -0.60740 0.90470 0.72340
H12A H -0.60350 0.79360 0.71290
O1A O -0.60947(13) 0.53747(12) 0.14576(14)
O2A O -0.88958(13) 1.05803(12) 0.36175(15)
O3A O -0.85875(18) 1.01304(15) 0.21044(17)
O4A O -0.64165(17) 0.46479(16) 0.28439(16)
O5A O -0.92077(16) 0.22927(14) 0.19652(18)
O6A O -0.53613(14) 0.68091(12) 0.38006(16)
O7A O -0.62754(16) 0.75009(15) 0.22139(17)
O8A O -1.02012(16) 0.19992(15) 0.01925(19)
Zn2* Zn -1.00000 0.13699(2) 0.25000
Zn2** Zn -1.00000 1.13699(2) 0.25000
Zn2*** Zn 0.00000 1.13699(2) 0.25000
Rb1A Rb -0.50000 0.50000 0.50000
Rb2* Rb -1.00000 1.00000 0.50000
Rb2** Rb 0.00000 0.00000 0.50000
Rb2A Rb -1.00000 0.00000 0.00000
Rb2A* Rb -1.00000 1.00000 0.00000
Rb2A** Rb 0.00000 1.00000 0.00000
O1C O -0.39053(13) 0.46253(12) -0.14576(14)
O2* O -0.11042(13) 0.05803(12) 0.13825(15)
O2A* O 0.11042(13) 0.05803(12) 0.36175(15)
O2A** O 0.11042(13) 1.05803(12) 0.36175(15)
O2C O -0.11042(13) 0.94197(12) 0.63825(15)
O3B O 0.14125(18) 0.98696(15) 0.71044(17)
O4B O -0.64165(17) 0.53521(16) -0.21561(16)
O5A* O 0.07923(16) 0.22927(14) 0.19652(18)
O6B O -0.53613(14) 0.31909(12) -0.11994(16)
O8* O 0.02012(16) 1.19992(15) 0.48075(19)
O8B O -0.02012(16) 0.80008(15) 0.51925(19)
#END
