
#######################################################################
#
#                 Cambridge Crystallographic Data Centre
#                                CCDC
#
#######################################################################
#
# If this CIF has been generated from an entry in the Cambridge
# Structural Database, then it will include bibliographic, chemical,
# crystal, experimental, refinement or atomic coordinate data resulting
# from the CCDC's data processing and validation procedures.
#
#######################################################################

data_CSD_CIF_ZONCAI
_audit_creation_date 2014-11-12
_audit_creation_method CSD-ConQuest-V1
_database_code_CSD ZONCAI
_database_code_depnum_ccdc_archive 'CCDC 981464'
_chemical_formula_sum 'C40 H40 N2 Na2 O16 Zn2'
_chemical_formula_moiety
;
(C36 H24 Na2 O16 Zn2 2-)n,2n(C2 H8 N1 1+)
;
_journal_coden_Cambridge 603
_journal_volume 33
_journal_year 2014
_journal_page_first 1191
_journal_name_full 'Jiegou Huaxue(Chin.)(Chin.J.Struct.Chem.) '
loop_
_publ_author_name
"Li-Ping Xue"
"Yue-Cheng Liu"
"Yun-Hu Han"
"Chong-Bin Tain"
"Qi-Peng Li"
"Ping Lin"
"Shao-Wu Du"
_chemical_name_systematic
;
catena-(bis(Dimethylammonium) 
bis(\m~5~-5-methylisophthalato-O,O,O',O'',O'',O''')-bis(\m~5~-5-methylisophtha
lato-O,O,O',O'',O''')-di-sodium-di-zinc)
;
_cell_volume   2125.149
_exptl_crystal_colour 'colorless'
_exptl_crystal_density_diffrn 1.534
_exptl_crystal_description 'Prism'
_diffrn_ambient_temperature 293
#These two values have been output from a single CSD field.
_refine_ls_R_factor_gt 0.0472
_refine_ls_wR_factor_gt 0.0472
_symmetry_cell_setting monoclinic
_symmetry_space_group_name_H-M 'P 2/c'
_symmetry_Int_Tables_number 13
loop_
_symmetry_equiv_pos_site_id
_symmetry_equiv_pos_as_xyz
1 x,y,z
2 -x,y,1/2-z
3 -x,-y,-z
4 x,-y,-1/2+z
_cell_length_a 13.8540(18)
_cell_length_b 13.9532(11)
_cell_length_c 11.7820(15)
_cell_angle_alpha 90
_cell_angle_beta 111.079(7)
_cell_angle_gamma 90
_cell_formula_units_Z 2
loop_
_atom_type_symbol
_atom_type_radius_bond
C 0.68
H 0.23
N 0.68
Na 1.66
O 0.68
Zn 1.22
loop_
_atom_site_label
_atom_site_type_symbol
_atom_site_fract_x
_atom_site_fract_y
_atom_site_fract_z
Zn1 Zn -1.00000 0.11436(3) 0.25000
Zn2 Zn -0.50000 -0.38061(2) 0.25000
Na1 Na 0.00000 -1.00000 0.50000
Na2 Na -0.50000 -0.50000 0.00000
O1 O -0.39581(14) -0.46404(14) 0.36663(17)
C1 C -0.34897(18) -0.51610(18) 0.3117(2)
C2 C -0.76348(19) -0.08762(19) 0.4040(2)
O2 O -0.86689(16) -0.03736(16) 0.20390(19)
C3 C -0.26461(19) -0.57895(18) 0.3931(2)
O3 O -0.36927(15) -0.51484(16) 0.20105(18)
C4 C -0.7048(2) -0.15177(19) 0.3644(2)
H1 H -0.71650 -0.15730 0.28180
C5 C -0.74271(19) -0.0793(2) 0.5295(2)
H2 H -0.78130 -0.03650 0.55640
C6 C -0.2388(2) -0.5782(2) 0.5193(2)
H3 H -0.27270 -0.53590 0.55340
C7 C -0.2135(2) -0.6423(2) 0.3414(2)
H4 H -0.22910 -0.64230 0.25780
O4 O -0.58752(16) -0.28588(15) 0.29423(19)
O5 O -0.11292(16) -0.77803(17) 0.2457(2)
C8 C -0.6662(2) -0.1333(2) 0.6145(3)
C9 C -0.6108(2) -0.19910(19) 0.5714(3)
H5 H -0.56110 -0.23780 0.62650
C10 C -0.1159(2) -0.7035(2) 0.5408(3)
H6 H -0.06710 -0.74630 0.58960
C11 C -0.1637(2) -0.6392(2) 0.5950(3)
C12 C -0.6290(2) -0.20746(18) 0.4483(3)
O6 O -0.49614(16) -0.32490(15) 0.4852(2)
C13 C -0.13976(19) -0.70498(19) 0.4149(2)
C14 C -0.6452(3) -0.1238(3) 0.7488(3)
H7 H -0.68990 -0.07580 0.76150
H8 H -0.57440 -0.10550 0.79020
H9 H -0.65800 -0.18410 0.78000
C15 C -0.1387(3) -0.6384(3) 0.7296(3)
H10 H -0.17900 -0.58980 0.74970
H11 H -0.06650 -0.62500 0.77030
H12 H -0.15470 -0.69980 0.75510
C16 C -0.5664(2) -0.27833(18) 0.4084(3)
O7 O -0.89729(14) 0.02544(14) 0.36198(18)
C17 C -0.84906(19) -0.03023(18) 0.3138(2)
O8 O -0.02295(15) -0.83334(15) 0.4267(2)
C18 C -0.0888(2) -0.7766(2) 0.3603(3)
N1 N -0.2787(3) -0.7450(2) 0.0290(4)
H13 H -0.29490 -0.72290 0.08790
C19 C -0.3179(4) -0.8335(3) -0.0307(3)
H14 H -0.36340 -0.86190 0.00500
H15 H -0.26140 -0.87630 -0.02180
H16 H -0.35530 -0.82180 -0.11560
C20 C -0.2071(4) -0.6944(4) -0.0198(5)
H17 H -0.18400 -0.63580 0.02440
H18 H -0.24270 -0.68020 -0.10430
H19 H -0.14860 -0.73450 -0.01080
H20 H -0.231(3) -0.7479(10) -0.007(4)
C2A C -1.23652(19) -0.08762(19) 0.0960(2)
O2A O -1.13311(16) -0.03736(16) 0.29610(19)
C4A C -1.2952(2) -0.15177(19) 0.1356(2)
H1A H -1.28350 -0.15730 0.21820
C5A C -1.25729(19) -0.0793(2) -0.0295(2)
H2A H -1.21870 -0.03650 -0.05640
O4A O -1.41248(16) -0.28588(15) 0.20577(19)
C8A C -1.3338(2) -0.1333(2) -0.1145(3)
C9A C -1.3892(2) -0.19910(19) -0.0714(3)
H5A H -1.43890 -0.23780 -0.12650
C12A C -1.3710(2) -0.20746(18) 0.0517(3)
O6A O -1.50386(16) -0.32490(15) 0.0148(2)
C14A C -1.3548(3) -0.1238(3) -0.2488(3)
H7A H -1.31010 -0.07580 -0.26150
H8A H -1.42560 -0.10550 -0.29020
H9A H -1.34200 -0.18410 -0.28000
C16A C -1.4336(2) -0.27833(18) 0.0916(3)
O7A O -1.10271(14) 0.02544(14) 0.13802(18)
C17A C -1.15094(19) -0.03023(18) 0.1862(2)
O1A O -0.60419(14) 0.53596(14) 0.13337(17)
C1A C -0.65103(18) 0.48390(18) 0.1883(2)
C3A C -0.73539(19) 0.42105(18) 0.1069(2)
O3A O -0.63073(15) 0.48516(16) 0.29895(18)
C6A C -0.7612(2) 0.4218(2) -0.0193(2)
H3A H -0.72730 0.46410 -0.05340
C7A C -0.7865(2) 0.3577(2) 0.1586(2)
H4A H -0.77090 0.35770 0.24220
O5A O -0.88708(16) 0.22197(17) 0.2543(2)
C10A C -0.8841(2) 0.2965(2) -0.0408(3)
H6A H -0.93290 0.25370 -0.08960
C11A C -0.8363(2) 0.3608(2) -0.0950(3)
C13A C -0.86024(19) 0.29502(19) 0.0851(2)
C15A C -0.8613(3) 0.3616(3) -0.2296(3)
H10A H -0.82100 0.41020 -0.24970
H11A H -0.93350 0.37500 -0.27030
H12A H -0.84530 0.30020 -0.25510
O8A O -0.97705(15) 0.16666(15) 0.0733(2)
C18A C -0.9112(2) 0.2234(2) 0.1397(3)
Zn1* Zn 0.00000 -0.88564(3) 0.25000
Zn2* Zn -1.50000 -0.38061(2) 0.25000
Zn2** Zn -0.50000 0.61939(2) 0.25000
Na1* Na -1.00000 0.00000 0.50000
Na1A Na -1.00000 0.00000 0.00000
Na2* Na -1.50000 -0.50000 0.00000
Na2** Na -0.50000 0.50000 0.00000
Na2A Na -0.50000 -0.50000 0.50000
Na2A* Na -0.50000 0.50000 0.50000
O1A* O -0.60419(14) -0.46404(14) 0.13337(17)
O1C O -0.39581(14) -0.53596(14) -0.13337(17)
O2A* O -0.13311(16) -1.03736(16) 0.29610(19)
O2C O 0.13311(16) -0.96264(16) 0.70390(19)
O3B O -0.63073(15) -0.48516(16) -0.20105(18)
O4A* O -0.41248(16) -0.28588(15) 0.20577(19)
O5* O -1.11292(16) 0.22197(17) 0.2457(2)
O6A* O -0.50386(16) -0.32490(15) 0.0148(2)
O6C O -0.49614(16) -0.67510(15) -0.0148(2)
O7* O 0.10271(14) -0.97456(14) 0.36198(18)
O7B O -0.10271(14) -1.02544(14) 0.63802(18)
O8* O -1.02295(15) 0.16666(15) 0.4267(2)
O8B O 0.02295(15) -1.16666(15) 0.5733(2)
#END
