
#######################################################################
#
#                 Cambridge Crystallographic Data Centre
#                                CCDC
#
#######################################################################
#
# If this CIF has been generated from an entry in the Cambridge
# Structural Database, then it will include bibliographic, chemical,
# crystal, experimental, refinement or atomic coordinate data resulting
# from the CCDC's data processing and validation procedures.
#
#######################################################################

data_CSD_CIF_ZONYEG
_audit_creation_date 1996-09-09
_audit_creation_method CSD-ConQuest-V1
_database_code_CSD ZONYEG
_database_code_depnum_ccdc_archive 'CCDC 1314866'
_chemical_formula_sum 'C22 H24 Co1 K3 N6 O16 Rh4'
_chemical_formula_moiety
;
(C22 H24 Co1 N6 O16 Rh4 3-)n,3n(K1 1+)
;
_journal_coden_Cambridge 182
_journal_year 1996
_journal_page_first 399
_journal_name_full 'Chem.Commun. '
loop_
_publ_author_name
"Jian Lu"
"W.T.A.Harrison"
"A.J.Jacobson"
_chemical_name_systematic
;
catena-(Tripotassium 
octakis(\m~2~-acetato-O,O')-tetrakis(\m~2~-cyano)-dicyano-cobalt-tetra-rhodium
)
;
_cell_volume   2209.841
_exptl_crystal_colour 'dark red-purple'
_exptl_crystal_density_diffrn 1.83
_diffrn_ambient_temperature 223.15
_refine_special_details
;
The bridging acetato ligands are disordered over two positions, with 
occupancy 0.53:0.47. The potassium sites are half-occupied.
;
#These two values have been output from a single CSD field.
_refine_ls_R_factor_gt 0.0646
_refine_ls_wR_factor_gt 0.0646
_symmetry_cell_setting monoclinic
_symmetry_space_group_name_H-M 'C 2/m'
_symmetry_Int_Tables_number 12
loop_
_symmetry_equiv_pos_site_id
_symmetry_equiv_pos_as_xyz
1 x,y,z
2 -x,y,-z
3 1/2+x,1/2+y,z
4 1/2-x,1/2+y,-z
5 -x,-y,-z
6 x,-y,z
7 -1/2-x,-1/2-y,-z
8 -1/2+x,-1/2-y,z
_cell_length_a 16.354(7)
_cell_length_b 18.379(5)
_cell_length_c 7.908(3)
_cell_angle_alpha 90
_cell_angle_beta 111.61(3)
_cell_angle_gamma 90
_cell_formula_units_Z 2
loop_
_atom_type_symbol
_atom_type_radius_bond
C 0.68
Co 1.33
K 1.33
N 0.68
O 0.68
Rh 1.39
loop_
_atom_site_label
_atom_site_type_symbol
_atom_site_fract_x
_atom_site_fract_y
_atom_site_fract_z
K1 K -0.2148(7) 0.00000 0.470(1)
Rh1 Rh -0.20520(6) 0.20224(5) 0.5910(1)
Co1 Co -0.50000 0.50000 0.00000
N1 N -0.3795(7) 0.3839(6) 0.240(1)
N2 N -0.411(1) 0.50000 -0.270(3)
O1 O -0.123(1) 0.2761(9) 0.746(2)
O2 O -0.301(1) 0.1310(8) 0.422(2)
O3 O -0.141(1) 0.193(1) 0.418(2)
O4 O -0.282(1) 0.2133(8) 0.748(2)
C1 C -0.4235(8) 0.4279(7) 0.145(2)
C2 C -0.442(1) 0.50000 -0.164(2)
C3 C -0.153(1) 0.235(1) 0.279(3)
C4 C -0.133(1) 0.341(1) 0.714(3)
C5 C -0.091(2) 0.229(1) 0.173(3)
C6 C -0.066(2) 0.395(1) 0.834(3)
K2? K -0.0332(4) 0.1289(3) 0.4554(7)
O5? O -0.311(1) 0.1523(9) 0.598(2)
O6? O -0.215(1) 0.1514(8) 0.361(2)
O7? O -0.194(1) 0.2636(8) 0.815(2)
O8? O -0.099(1) 0.2615(9) 0.571(2)
C7? C -0.261(1) 0.177(1) 0.206(2)
C8? C -0.386(1) 0.179(1) 0.509(3)
C9? C -0.275(2) 0.131(1) 0.037(3)
C10? C -0.464(2) 0.134(2) 0.507(5)
Rh1F Rh -0.29480(6) 0.29776(5) 0.4090(1)
N1F N -0.1205(7) 0.1161(6) 0.760(1)
C1A C -0.5765(8) 0.4279(7) -0.145(2)
N1A N -0.6205(7) 0.3839(6) -0.240(1)
Rh1G Rh -0.70520(6) 0.29776(5) -0.4090(1)
Rh1A Rh -0.79480(6) 0.20224(5) -0.5910(1)
N1G N -0.8795(7) 0.1161(6) -0.760(1)
O1A O -0.877(1) 0.2761(9) -0.746(2)
C4A C -0.867(1) 0.341(1) -0.714(3)
O2G O -0.801(1) 0.3690(8) -0.578(2)
O1G O -0.623(1) 0.2239(9) -0.254(2)
C4G C -0.633(1) 0.159(1) -0.286(3)
O2A O -0.699(1) 0.1310(8) -0.422(2)
O3A O -0.859(1) 0.193(1) -0.418(2)
C3A C -0.847(1) 0.235(1) -0.279(3)
O4G O -0.782(1) 0.2867(8) -0.252(2)
O3G O -0.641(1) 0.307(1) -0.582(2)
C3G C -0.653(1) 0.265(1) -0.721(3)
O4A O -0.718(1) 0.2133(8) -0.748(2)
C5G C -0.591(2) 0.271(1) -0.827(3)
C5A C -0.909(2) 0.229(1) -0.173(3)
C6G C -0.566(2) 0.105(1) -0.166(3)
C6A C -0.934(2) 0.395(1) -0.834(3)
C1D C -0.5765(8) 0.5721(7) -0.145(2)
N1D N -0.6205(7) 0.6161(6) -0.240(1)
Rh1B Rh -0.70520(6) 0.70224(5) -0.4090(1)
C1E C -0.4235(8) 0.5721(7) 0.145(2)
N1E N -0.3795(7) 0.6161(6) 0.240(1)
Rh1C Rh -0.29480(6) 0.70224(5) 0.4090(1)
C2A C -0.558(1) 0.50000 0.164(2)
N2A N -0.589(1) 0.50000 0.270(3)
O1F O -0.377(1) 0.2239(9) 0.254(2)
C4F C -0.367(1) 0.159(1) 0.286(3)
O2F O -0.199(1) 0.3690(8) 0.578(2)
O3F O -0.359(1) 0.307(1) 0.582(2)
C3F C -0.347(1) 0.265(1) 0.721(3)
O4F O -0.218(1) 0.2867(8) 0.252(2)
C5F C -0.409(2) 0.271(1) 0.827(3)
C6F C -0.434(2) 0.105(1) 0.166(3)
#END
