
#######################################################################
#
#                 Cambridge Crystallographic Data Centre
#                                CCDC
#
#######################################################################
#
# If this CIF has been generated from an entry in the Cambridge
# Structural Database, then it will include bibliographic, chemical,
# crystal, experimental, refinement or atomic coordinate data resulting
# from the CCDC's data processing and validation procedures.
#
#######################################################################

data_CSD_CIF_ZOPDOA
_audit_creation_date 2019-09-10
_audit_creation_method CSD-ConQuest-V1
_database_code_CSD ZOPDOA
_database_code_depnum_ccdc_archive 'CCDC 1936073'
_chemical_formula_sum 'C40 H52 Cd2 N4 O24 S2'
_chemical_formula_moiety
;
C12 H14 N2 2+,n(C28 H22 Cd2 N2 O16 S2 2-),8(H2 O1)
;
_journal_coden_Cambridge 9
_journal_year 2019
_journal_name_full 'Inorg.Chem. '
loop_
_publ_author_name
"D.K.Maity"
"S.Ghosh"
"K.Otake"
"H.Kitagawa"
"D.Ghoshal"
_chemical_name_systematic
;
catena-[(1,2-bis(pyridinium-4-yl)ethane) 
bis(\m-5-sulfonatobenzene-1,3-dicarboxylato)-(\m-4,4'-(ethane-1,2-diyl)dipyrid
ine)-diaqua-di-cadmium(ii) octahydrate]
;
_cell_volume   1219.591
_exptl_crystal_colour 'white'
_exptl_crystal_density_diffrn 1.71
_exptl_crystal_description 'Block'
_diffrn_ambient_temperature 298
_refine_special_details
;
N2A and N2B disordered over two sites with occupancies 0.5:0.5.

;
#These two values have been output from a single CSD field.
_refine_ls_R_factor_gt 0.0295
_refine_ls_wR_factor_gt 0.0295
_symmetry_cell_setting triclinic
_symmetry_space_group_name_H-M 'P -1'
_symmetry_Int_Tables_number 2
loop_
_symmetry_equiv_pos_site_id
_symmetry_equiv_pos_as_xyz
1 x,y,z
2 -x,-y,-z
_cell_length_a 10.208(5)
_cell_length_b 11.668(5)
_cell_length_c 12.146(5)
_cell_angle_alpha 118.144(5)
_cell_angle_beta 100.401(5)
_cell_angle_gamma 96.804(5)
_cell_formula_units_Z 1
loop_
_atom_type_symbol
_atom_type_radius_bond
C 0.68
H 0.23
Cd 1.44
N 0.68
O 0.68
S 1.02
loop_
_atom_site_label
_atom_site_type_symbol
_atom_site_fract_x
_atom_site_fract_y
_atom_site_fract_z
Cd1 Cd 0.71866(2) 0.16784(2) 0.22597(2)
S1 S 0.33979(6) 0.72585(5) 0.46171(5)
O1 O 0.46702(19) 0.14947(17) 0.18251(18)
O2 O -0.0238(2) 0.13624(18) 0.2142(2)
O3 O 0.2963(2) 0.75076(18) 0.35567(19)
O4 O 0.2559(2) 0.77158(17) 0.55193(17)
O5 O -0.08949(18) 0.32443(18) 0.2918(2)
N1 N 0.6736(2) -0.04725(18) 0.1790(2)
O6 O 0.4854(2) 0.77444(18) 0.5220(2)
C1 C 0.3052(2) 0.5488(2) 0.3871(2)
C2 C 0.6871(3) -0.2732(2) 0.0548(3)
H1 H 0.72371 -0.33480 -0.00617
C3 C 0.3784(2) 0.3441(2) 0.2806(2)
C4 C 0.4920(2) 0.2744(2) 0.2437(2)
C5 C 0.1446(2) 0.3374(2) 0.2935(2)
C6 C 0.5475(4) -0.2194(3) 0.1978(3)
H2 H 0.48741 -0.24295 0.23682
C7 C 0.1746(2) 0.4769(2) 0.3626(2)
H3 H 0.10746 0.52140 0.39209
C8 C 0.2471(2) 0.2720(2) 0.2533(2)
H4 H 0.22729 0.17908 0.20765
C9 C 0.4067(2) 0.4833(2) 0.3462(2)
H5 H 0.49373 0.53234 0.36263
C10 C 0.5872(4) -0.0877(3) 0.2299(3)
H6 H 0.55162 -0.02433 0.29022
C11 C 0.7229(3) -0.1396(2) 0.0921(3)
H7 H 0.78360 -0.11318 0.05521
C12 C 0.5530(3) -0.4614(2) 0.0660(3)
H8 H 0.51413 -0.46924 0.13004
H9 H 0.63222 -0.50017 0.06127
C13 C 0.0016(2) 0.2592(2) 0.2638(2)
C14 C 0.5973(3) -0.3156(2) 0.1076(2)
O7 O 0.61093(18) 0.34559(18) 0.2803(2)
O8 O 0.6972(2) 0.0982(2) 0.00955(19)
H10 H 0.66695 0.15489 -0.00930
H11 H 0.64031 0.02079 -0.03928
N2 N 0.1385(7) 0.4429(6) 0.6987(8)
C15 C 0.0947(4) 0.1824(3) 0.6075(3)
C16 C 0.1750(4) 0.2284(4) 0.5486(4)
H12 H 0.20441 0.16780 0.48035
C17 C 0.2105(5) 0.3599(6) 0.5896(5)
C18 C 0.0863(7) 0.4046(6) 0.7453(5)
C19 C 0.0519(4) 0.2742(4) 0.7048(4)
H13 H -0.00305 0.24554 0.74460
C20 C 0.0581(6) 0.0335(4) 0.5585(4)
H14 H 0.13647 -0.00381 0.53867
H15 H 0.03408 0.01866 0.62526
N3? N 0.2006(9) 0.4414(8) 0.6749(9)
O9 O 0.6991(2) 0.0117(2) 0.6505(2)
H16 H 0.62670 -0.05062 0.61440
H17 H 0.68666 0.07207 0.63198
O10 O 0.1945(3) 0.5523(2) 0.0942(2)
H18 H 0.20660 0.59101 0.17581
H19 H 0.14899 0.59256 0.06404
O11 O 0.1030(3) 0.92504(17) 0.1323(2)
H20 H 0.16422 0.95183 0.20236
H21 H 0.06266 0.98703 0.14007
O12 O 0.0272(3) 0.65292(18) -0.0233(3)
H22 H 0.03409 0.73685 0.01597
H23 H -0.05697 0.61240 -0.05625
N1A N 0.3264(2) -0.95275(18) -0.1790(2)
C2A C 0.3129(3) -0.7268(2) -0.0548(3)
H1A H 0.27629 -0.66520 0.00617
C6A C 0.4525(4) -0.7806(3) -0.1978(3)
H2A H 0.51259 -0.75705 -0.23682
C10A C 0.4128(4) -0.9123(3) -0.2299(3)
H6A H 0.44838 -0.97567 -0.29022
C11A C 0.2771(3) -0.8604(2) -0.0921(3)
H7A H 0.21640 -0.88682 -0.05521
C12A C 0.4470(3) -0.5386(2) -0.0660(3)
H8A H 0.48587 -0.53076 -0.13004
H9A H 0.36778 -0.49983 -0.06127
C14A C 0.4027(3) -0.6844(2) -0.1076(2)
Cd1A Cd 0.28134(2) -1.16784(2) -0.22597(2)
S1A S 0.66021(6) -1.72585(5) -0.46171(5)
O1A O 0.53298(19) -1.14947(17) -0.18251(18)
O2A O 1.0238(2) -1.13624(18) -0.2142(2)
O3A O 0.7037(2) -1.75076(18) -0.35567(19)
O4A O 0.7441(2) -1.77158(17) -0.55193(17)
O5A O 1.08949(18) -1.32443(18) -0.2918(2)
O6A O 0.5146(2) -1.77444(18) -0.5220(2)
C1A C 0.6948(2) -1.5488(2) -0.3871(2)
C3A C 0.6216(2) -1.3441(2) -0.2806(2)
C4A C 0.5080(2) -1.2744(2) -0.2437(2)
C5A C 0.8554(2) -1.3374(2) -0.2935(2)
C7A C 0.8254(2) -1.4769(2) -0.3626(2)
H3A H 0.89254 -1.52140 -0.39209
C8A C 0.7529(2) -1.2720(2) -0.2533(2)
H4A H 0.77271 -1.17908 -0.20765
C9A C 0.5933(2) -1.4833(2) -0.3462(2)
H5A H 0.50627 -1.53234 -0.36263
C13A C 0.9984(2) -1.2592(2) -0.2638(2)
O7A O 0.38907(18) -1.34559(18) -0.2803(2)
O8A O 0.3028(2) -1.0982(2) -0.00955(19)
H10A H 0.33305 -1.15489 0.00930
H11A H 0.35969 -1.02079 0.03928
Cd1* Cd -0.28134(2) 0.16784(2) 0.22597(2)
Cd1** Cd 0.71866(2) -1.83216(2) -0.77403(2)
Cd1A* Cd 0.28134(2) 0.83216(2) 0.77403(2)
Cd1A** Cd 1.28134(2) -1.16784(2) -0.22597(2)
O2* O 0.9762(2) 0.13624(18) 0.2142(2)
O2A* O 0.0238(2) -1.13624(18) -0.2142(2)
O4* O 0.2559(2) -1.22842(17) -0.44807(17)
O4A* O 0.7441(2) 0.22842(17) 0.44807(17)
O5* O 0.91051(18) 0.32443(18) 0.2918(2)
O5A* O 0.08949(18) -1.32443(18) -0.2918(2)
N2A N -0.1385(7) -0.4429(6) 0.3013(8)
C15A C -0.0947(4) -0.1824(3) 0.3925(3)
C16A C -0.1750(4) -0.2284(4) 0.4514(4)
H12A H -0.20441 -0.16780 0.51965
C17A C -0.2105(5) -0.3599(6) 0.4104(5)
C18A C -0.0863(7) -0.4046(6) 0.2547(5)
C19A C -0.0519(4) -0.2742(4) 0.2952(4)
H13A H 0.00305 -0.24554 0.25540
C20A C -0.0581(6) -0.0335(4) 0.4415(4)
H14A H -0.13647 0.00381 0.46133
H15A H -0.03408 -0.01866 0.37474
#END
