
#######################################################################
#
#                 Cambridge Crystallographic Data Centre
#                                CCDC
#
#######################################################################
#
# If this CIF has been generated from an entry in the Cambridge
# Structural Database, then it will include bibliographic, chemical,
# crystal, experimental, refinement or atomic coordinate data resulting
# from the CCDC's data processing and validation procedures.
#
#######################################################################

data_CSD_CIF_ZOPPEB
_audit_creation_date 2014-11-13
_audit_creation_method CSD-ConQuest-V1
_database_code_CSD ZOPPEB
_database_code_depnum_ccdc_archive 'CCDC 899868'
_chemical_formula_sum 'C56 H64 N14 Nd2 O35 Sr1'
_chemical_formula_moiety
;
(C42 H28 N6 Nd2 O29 Sr1 4-)n,4(C3 H5 N2 1+),C2 H6 O1,5(H2 O1)
;
_journal_coden_Cambridge 603
_journal_volume 32
_journal_year 2013
_journal_page_first 1859
_journal_name_full 'Jiegou Huaxue(Chin.)(Chin.J.Struct.Chem.) '
loop_
_publ_author_name
"Yanmei Chen"
"Yanyuan Cao"
"Yahong Li"
"Wei Liu"
_chemical_name_systematic
;
catena-(tetrakis(imidazolium) 
tetrakis(\m-pyridine-2,6-dicarboxylato)-pentaaqua-bis(pyridine-2,6-dicarboxyla
to)-di-neodymium-strontium ethanol solvate pentahydrate)
;
_cell_volume   3430.604
_exptl_crystal_colour 'colorless'
_exptl_crystal_density_diffrn 1.81
_exptl_crystal_description 'rod'
_diffrn_ambient_temperature 292
#These two values have been output from a single CSD field.
_refine_ls_R_factor_gt 0.0294
_refine_ls_wR_factor_gt 0.0294
_symmetry_cell_setting triclinic
_symmetry_space_group_name_H-M 'P -1'
_symmetry_Int_Tables_number 2
loop_
_symmetry_equiv_pos_site_id
_symmetry_equiv_pos_as_xyz
1 x,y,z
2 -x,-y,-z
_cell_length_a 10.394(2)
_cell_length_b 11.066(2)
_cell_length_c 30.409(6)
_cell_angle_alpha 88.42(3)
_cell_angle_beta 87.81(3)
_cell_angle_gamma 79.04(3)
_cell_formula_units_Z 2
loop_
_atom_type_symbol
_atom_type_radius_bond
C 0.68
H 0.23
N 0.68
Nd 2.01
O 0.68
Sr 1.95
loop_
_atom_site_label
_atom_site_type_symbol
_atom_site_fract_x
_atom_site_fract_y
_atom_site_fract_z
Nd1 Nd 0.443555(17) 0.345215(16) 0.373061(6)
O1 O 0.5387(2) 0.4929(2) 0.32493(8)
N1 N 0.6834(3) 0.3621(2) 0.38396(9)
C1 C 0.7394(3) 0.4431(3) 0.36003(11)
C2 C 1.1310(4) 0.8948(4) 0.02286(13)
H1 H 1.14290 0.82110 0.00790
Nd2 Nd 0.872934(18) 1.045696(16) 0.149096(6)
O2 O 0.7030(2) 0.5841(2) 0.30043(8)
N2 N 0.2950(3) 0.3399(3) 0.44238(9)
C3 C 0.8658(4) 0.4573(4) 0.36565(12)
H2 H 0.90150 0.51580 0.34920
Sr1 Sr 0.72909(3) 0.57212(3) 0.215079(11)
O3 O 0.5668(2) 0.1995(2) 0.42699(8)
N3 N 0.3648(3) 0.3293(3) 0.29458(9)
C4 C 0.9379(4) 0.3833(4) 0.39598(13)
H3 H 1.02380 0.39110 0.40080
O4 O 0.7452(3) 0.1228(3) 0.46251(9)
N4 N 0.6315(3) 1.0279(3) 0.14695(9)
C5 C 0.8820(4) 0.2962(4) 0.41963(12)
H4 H 0.93090 0.24310 0.43970
O5 O 0.4320(3) 0.5149(2) 0.42425(8)
C6 C 0.7545(3) 0.2893(3) 0.41316(11)
N5 N 1.0305(3) 1.0174(3) 0.08142(9)
O6 O 0.3587(3) 0.6121(3) 0.48563(10)
C7 C 0.6542(4) 0.5140(3) 0.32547(11)
N6 N 0.9666(3) 1.0894(3) 0.2217(1)
O7 O 0.3156(2) 0.1741(2) 0.38137(8)
C8 C 0.6850(4) 0.1964(3) 0.43677(11)
O8 O 0.1797(3) 0.0716(3) 0.4179(1)
C9 C 0.2895(4) 0.4273(3) 0.47208(12)
O9 O 0.5703(2) 0.1872(2) 0.32669(8)
C10 C 0.2168(4) 0.4247(4) 0.51075(13)
H5 H 0.21160 0.48730 0.53090
O10 O 0.6171(3) 0.0910(2) 0.26363(8)
C11 C 0.1516(5) 0.3287(4) 0.51940(14)
H6 H 0.10340 0.32540 0.54570
O11 O 0.2378(2) 0.4816(2) 0.35175(8)
C12 C 0.1583(4) 0.2378(4) 0.48898(12)
H7 H 0.11550 0.17200 0.49420
O12 O 0.0932(3) 0.5674(3) 0.30316(9)
C13 C 0.2309(3) 0.2474(3) 0.45029(11)
O13 O 0.7934(2) 0.9021(2) 0.20202(8)
C14 C 0.3663(4) 0.5265(3) 0.45966(12)
O14 O 0.6415(2) 0.8023(2) 0.23094(8)
C15 C 0.2417(3) 0.1558(3) 0.41411(12)
O15 O 0.7437(3) 1.1643(2) 0.09110(8)
C16 C 0.4366(3) 0.2523(3) 0.26701(11)
O16 O 0.5569(3) 1.2474(3) 0.06241(10)
C17 C 0.4055(4) 0.2467(4) 0.22374(13)
H8 H 0.45910 0.19300 0.20480
O17 O 0.8769(3) 0.8588(2) 0.10385(9)
C18 C 0.2955(5) 0.3207(5) 0.20906(15)
H9 H 0.27200 0.31770 0.18000
O18 O 0.9917(3) 0.7162(3) 0.06128(11)
C19 C 0.2198(4) 0.4000(4) 0.23769(14)
H10 H 0.14300 0.45030 0.22850
O19 O 1.0012(3) 1.2124(2) 0.13070(8)
C20 C 0.2587(3) 0.4042(3) 0.28027(12)
O20 O 1.1327(3) 1.3018(3) 0.0864(1)
C21 C 0.5517(3) 0.1706(3) 0.28691(11)
O21 O 1.0681(3) 0.9044(3) 0.17204(9)
C22 C 0.1892(3) 0.4923(3) 0.31399(12)
O22 O 1.2075(3) 0.8265(3) 0.22294(12)
C23 C 0.5813(3) 0.9528(3) 0.17509(11)
O23 O 0.7596(2) 1.2265(2) 0.18948(8)
C24 C 0.4519(4) 0.9433(4) 0.17601(13)
H11 H 0.41940 0.88990 0.19580
O24 O 0.7415(3) 1.3562(2) 0.24518(9)
C25 C 0.3710(4) 1.0156(4) 0.14668(14)
H12 H 0.28260 1.01120 0.14610
O25 O 0.7387(3) 0.6825(3) 0.13998(8)
H13 H 0.79240 0.73160 0.14010
H14 H 0.66880 0.68500 0.12610
C26 C 0.4227(4) 1.0943(4) 0.11824(13)
H15 H 0.36910 1.14510 0.09870
O26 O 0.9289(3) 0.4379(3) 0.17395(10)
H16 H 0.98510 0.48470 0.17380
H17 H 0.95720 0.37280 0.15970
C27 C 0.5546(3) 1.0971(3) 0.11899(11)
O27 O 0.6217(3) 0.4471(3) 0.15816(9)
H18 H 0.58080 0.49490 0.13880
H19 H 0.65410 0.38060 0.14520
C28 C 0.6794(4) 0.8797(3) 0.20562(11)
O28 O 0.4848(3) 0.5905(3) 0.24001(9)
H20 H 0.43070 0.60410 0.21940
H21 H 0.45780 0.52470 0.24730
C29 C 0.6227(4) 1.1763(3) 0.08834(11)
O29 O 0.9434(3) 0.6568(3) 0.22671(11)
H22 H 0.99870 0.64650 0.24700
H23 H 0.94970 0.71870 0.21020
C30 C 1.0471(3) 0.9141(3) 0.05872(12)
C31 C 1.1981(4) 0.9864(4) 0.00922(13)
H24 H 1.25330 0.97620 -0.01570
C32 C 1.1825(4) 1.0920(4) 0.03261(12)
H25 H 1.22840 1.15390 0.02440
C33 C 1.0974(3) 1.1047(3) 0.06872(11)
C34 C 0.9654(4) 0.8218(3) 0.07592(12)
C35 C 1.0754(4) 1.2169(3) 0.09724(12)
C36 C 1.0716(4) 1.0156(4) 0.23602(13)
C37 C 1.1314(5) 1.0421(5) 0.27355(16)
H26 H 1.20560 0.98910 0.28340
C38 C 1.0814(6) 1.1453(6) 0.29577(17)
H27 H 1.12200 1.16470 0.32070
C39 C 0.9704(5) 1.2215(5) 0.28148(14)
H28 H 0.93360 1.29250 0.29650
C40 C 0.9154(4) 1.1892(4) 0.24420(12)
C41 C 1.1198(4) 0.9060(4) 0.20839(14)
C42 C 0.7950(4) 1.2644(3) 0.22520(12)
N7 N 0.8375(4) 0.5513(3) 0.04280(13)
H29 H 0.88390 0.59980 0.05320
N8 N 0.7198(5) 0.4144(4) 0.03832(14)
H30 H 0.67540 0.35830 0.04540
C43 C 0.7857(6) 0.4686(5) 0.06543(16)
H31 H 0.79420 0.45120 0.09540
C44 C 0.8055(6) 0.5467(5) 0.00107(16)
H32 H 0.82990 0.59540 -0.02200
C45 C 0.7335(7) 0.4615(5) -0.00201(17)
H33 H 0.69870 0.43850 -0.02750
N9 N 0.3745(3) 0.9453(3) 0.34186(11)
H34 H 0.36640 1.01810 0.35220
N10 N 0.4373(4) 0.7902(3) 0.30285(12)
H35 H 0.47730 0.74300 0.28260
C46 C 0.4525(4) 0.9016(4) 0.30903(14)
H36 H 0.50890 0.94320 0.29290
C47 C 0.3495(5) 0.7586(4) 0.33275(16)
H37 H 0.32320 0.68290 0.33570
C48 C 0.3082(4) 0.8572(4) 0.35711(14)
H38 H 0.24590 0.86450 0.38010
N11 N 0.9405(4) 0.8199(4) 0.34411(17)
H39 H 0.99000 0.75080 0.35060
N12 N 0.8066(3) 0.9549(3) 0.31170(11)
H40 H 0.75160 0.99130 0.29300
C49 C 0.8643(5) 0.8413(5) 0.31038(17)
H41 H 0.85390 0.78480 0.28930
C50 C 0.8451(5) 1.0075(5) 0.34649(16)
H42 H 0.81740 1.08890 0.35460
C51 C 0.9282(5) 0.9245(7) 0.36703(18)
H43 H 0.97090 0.93510 0.39260
N13 N 0.5383(4) 0.9543(4) 0.43463(13)
H44 H 0.54190 1.03140 0.43440
N14 N 0.4817(4) 0.7819(3) 0.45129(12)
H45 H 0.44440 0.72730 0.46450
C52 C 0.4596(5) 0.8998(4) 0.45987(15)
H46 H 0.39820 0.93860 0.48050
C53 C 0.5723(5) 0.7610(5) 0.41842(16)
H47 H 0.60160 0.68630 0.40470
C54 C 0.6131(5) 0.8667(5) 0.40893(17)
H48 H 0.67950 0.87820 0.38880
C55 C 0.5465(7) 0.8279(7) 0.0420(2)
H49 H 0.55630 0.89580 0.05970
H50 H 0.50900 0.85870 0.01450
H51 H 0.63080 0.77690 0.03640
C56 C 0.4580(8) 0.7535(8) 0.0658(3)
H52 H 0.37620 0.80820 0.07360
H53 H 0.43790 0.69370 0.04570
O30 O 0.5041(5) 0.6952(6) 0.1014(2)
H54 H 0.44910 0.65880 0.11270
O31 O 0.3142(4) 0.6407(4) 0.17006(14)
H55 H 0.28290 0.60510 0.14970
H56 H 0.24340 0.67960 0.18190
O32 O 0.1303(4) 0.5287(3) 0.12076(12)
H57 H 0.11640 0.57890 0.09900
H58 H 0.12480 0.45610 0.11360
O33 O 0.0889(3) 0.6607(3) 0.40302(10)
H59 H 0.15060 0.60580 0.39280
H60 H 0.12170 0.69920 0.42220
O34 O 0.1166(4) 0.8561(3) 0.46059(11)
H61 H 0.13030 0.92470 0.45010
H62 H 0.14650 0.85700 0.48620
O35 O 0.4075(6) 0.4490(6) 0.1006(2)
H63 H 0.32460 0.45770 0.10320
H64 H 0.44500 0.38430 0.08750
Sr1* Sr 0.72909(3) 1.57212(3) 0.215079(11)
O24* O 0.7415(3) 0.3562(2) 0.24518(9)
#END
