
#######################################################################
#
#                 Cambridge Crystallographic Data Centre
#                                CCDC
#
#######################################################################
#
# If this CIF has been generated from an entry in the Cambridge
# Structural Database, then it will include bibliographic, chemical,
# crystal, experimental, refinement or atomic coordinate data resulting
# from the CCDC's data processing and validation procedures.
#
#######################################################################

data_CSD_CIF_ZOYPEK
_audit_creation_date 2015-03-27
_audit_creation_method CSD-ConQuest-V1
_database_code_CSD ZOYPEK
_database_code_depnum_ccdc_archive 'CCDC 1056596'
_chemical_formula_sum 'C42 H55 Co1 Mn2.5 N6 O29'
_chemical_formula_moiety
;
(C42 H29 Co1 Mn2 N6 O16 1-)n,0.5(H12 Mn1 O6 2+),10(H2 O1)
;
_journal_coden_Cambridge 9
_journal_volume 54
_journal_year 2015
_journal_page_first 2603
_journal_name_full 'Inorg.Chem. '
loop_
_publ_author_name
"G.Kumar"
"G.Kumar"
"R.Gupta"
_chemical_name_systematic
;
catena-[hemikis(hexa-aqua-manganese) 
bis(3,3'-(pyridine-2,6-diylbis(carbonylimino))dibenzoato)-(\m-hydroxo)-triaqua
-cobalt-di-manganese decahydrate]
;
_cell_volume   5840.517
_exptl_crystal_colour 'green'
_exptl_crystal_density_diffrn 1.445
_exptl_crystal_description 'Block'
_diffrn_ambient_temperature 298
_refine_special_details
;
The structure is disordered.

;
#These two values have been output from a single CSD field.
_refine_ls_R_factor_gt 0.1705
_refine_ls_wR_factor_gt 0.1705
_symmetry_cell_setting monoclinic
_symmetry_space_group_name_H-M 'P 21/n'
_symmetry_Int_Tables_number 14
loop_
_symmetry_equiv_pos_site_id
_symmetry_equiv_pos_as_xyz
1 x,y,z
2 1/2-x,1/2+y,1/2-z
3 -x,-y,-z
4 -1/2+x,-1/2-y,-1/2+z
_cell_length_a 16.178(3)
_cell_length_b 20.967(4)
_cell_length_c 17.788(4)
_cell_angle_alpha 90
_cell_angle_beta 104.54(3)
_cell_angle_gamma 90
_cell_formula_units_Z 4
loop_
_atom_type_symbol
_atom_type_radius_bond
C 0.68
H 0.23
Co 1.26
Mn 1.61
N 0.68
O 0.68
loop_
_atom_site_label
_atom_site_type_symbol
_atom_site_fract_x
_atom_site_fract_y
_atom_site_fract_z
C1 C 0.4489(7) 0.0992(6) 0.4085(6)
C2 C 0.5368(7) 0.0714(6) 0.4213(6)
C3 C 0.6056(6) 0.1122(5) 0.4356(6)
H1 H 0.59710 0.15590 0.43750
C4 C 0.6894(6) 0.0875(5) 0.4474(6)
C5 C 0.7011(7) 0.0236(6) 0.4471(8)
H2 H 0.75600 0.00720 0.45520
C6 C 0.6311(8) -0.0184(6) 0.4348(8)
H3 H 0.64030 -0.06220 0.43740
C7 C 0.5488(7) 0.0053(6) 0.4190(8)
H4 H 0.50220 -0.02220 0.40700
C8 C 0.8217(7) 0.1252(6) 0.5232(7)
C9 C 0.8936(7) 0.1708(6) 0.5232(7)
C10 C 0.9698(8) 0.1751(6) 0.5805(7)
H5 H 0.97930 0.15080 0.62560
C11 C 1.0314(8) 0.2176(7) 0.5675(8)
H6 H 1.08430 0.22010 0.60310
C12 C 1.0147(8) 0.2554(6) 0.5033(7)
H7 H 1.05470 0.28490 0.49560
C13 C 0.9358(7) 0.2489(6) 0.4491(6)
C14 C 0.9051(7) 0.2841(6) 0.3754(6)
C15 C 0.7895(7) 0.2981(5) 0.2646(7)
C16 C 0.8071(8) 0.2780(6) 0.1952(6)
H8 H 0.84070 0.24210 0.19460
C17 C 0.7746(8) 0.3115(6) 0.1280(7)
C18 C 0.7238(8) 0.3627(6) 0.1280(7)
H9 H 0.70550 0.38660 0.08280
C19 C 0.6981(9) 0.3806(7) 0.1947(7)
H10 H 0.65830 0.41290 0.19310
C20 C 0.7345(8) 0.3483(6) 0.2634(8)
H11 H 0.72140 0.36090 0.30920
C21 C 0.7946(9) 0.2913(6) 0.0532(7)
C22 C 0.7558(9) 0.2927(7) 0.7119(8)
C23 C 0.7674(7) 0.3132(6) 0.6357(7)
C24 C 0.7320(7) 0.2768(6) 0.5674(7)
H12 H 0.70230 0.23930 0.57030
C25 C 0.7426(7) 0.2983(6) 0.4968(6)
C26 C 0.7881(8) 0.3521(6) 0.4921(7)
H13 H 0.79800 0.36400 0.44470
C27 C 0.8200(9) 0.3894(6) 0.5580(8)
H14 H 0.84770 0.42770 0.55400
C28 C 0.8102(8) 0.3693(7) 0.6299(8)
H15 H 0.83250 0.39360 0.67410
C29 C 0.6318(6) 0.2696(6) 0.3876(6)
C30 C 0.6082(7) 0.2276(6) 0.3177(7)
C31 C 0.5307(8) 0.2206(7) 0.2647(8)
H16 H 0.48320 0.24370 0.26920
C32 C 0.5259(9) 0.1779(8) 0.2042(9)
H17 H 0.47450 0.17290 0.16700
C33 C 0.5940(9) 0.1436(7) 0.1984(7)
H18 H 0.58890 0.11440 0.15820
C34 C 0.6705(8) 0.1513(6) 0.2510(7)
C35 C 0.7517(8) 0.1180(7) 0.2569(8)
C36 C 0.8937(7) 0.1050(6) 0.3407(7)
C37 C 0.9647(8) 0.1365(6) 0.3327(7)
H19 H 0.95980 0.17670 0.31000
C38 C 1.0443(7) 0.1082(5) 0.3587(7)
C39 C 1.0547(8) 0.0468(6) 0.3871(8)
H20 H 1.10830 0.02760 0.40130
C40 C 0.9807(10) 0.0143(6) 0.3938(10)
H21 H 0.98530 -0.02720 0.41290
C41 C 0.9025(9) 0.0424(6) 0.3730(9)
H22 H 0.85470 0.02080 0.37990
C42 C 1.1232(7) 0.1464(7) 0.3528(7)
N1 N 0.7591(5) 0.1317(5) 0.4588(5)
N2 N 0.8801(5) 0.2070(4) 0.4615(5)
N3 N 0.8274(6) 0.2665(5) 0.3375(5)
N4 N 0.7110(6) 0.2599(5) 0.4276(5)
N5 N 0.6741(6) 0.1919(4) 0.3103(5)
N6 N 0.8112(5) 0.1346(5) 0.3214(6)
O1 O 0.8240(5) 0.0892(4) 0.5793(5)
O2 O 0.9505(5) 0.3260(4) 0.3549(5)
O3 O 0.0329(6) 0.3043(6) 0.2347(6)
O4 O 0.5789(5) 0.3097(5) 0.4022(6)
O5 O 0.1236(6) 0.3470(5) 0.3968(6)
O6 O 0.7595(6) 0.0781(5) 0.2076(6)
O7 O 0.2137(6) 0.3786(5) 0.2748(6)
O8 O 0.3847(5) 0.0660(4) 0.3768(6)
O9 O 0.4421(5) 0.1557(5) 0.4298(5)
O10 O 0.8162(9) 0.2345(5) 0.0460(6)
O11 O 0.7865(6) 0.3339(5) 0.0011(5)
O12 O 0.7000(7) 0.2526(5) 0.7145(5)
O13 O 0.8071(7) 0.3168(5) 0.7704(5)
O14 O 1.1880(5) 0.1163(5) 0.3527(6)
O15 O 1.1176(6) 0.2046(5) 0.3514(7)
O16 O 0.2928(5) 0.2719(4) 0.3930(5)
Mn1 Mn 0.30595(10) 0.16479(9) 0.38663(9)
Mn2 Mn 0.16368(12) 0.28896(9) 0.30870(11)
Co1 Co 0.77671(9) 0.19826(7) 0.38648(8)
O17 O 0.4205(12) 0.5559(7) 0.558(1)
O18 O 0.4622(16) 0.5603(8) 0.3979(10)
O19 O 0.6054(11) 0.5644(9) 0.5418(11)
Mn3 Mn 0.50000 0.50000 0.50000
O20 O 0.407(1) 0.4250(7) 0.2342(7)
O21 O 0.4140(6) 0.3409(5) 0.3534(6)
O22 O 0.4037(15) 0.5137(14) 0.6974(13)
O23 O 0.3183(8) 0.5313(6) 0.2730(7)
O24 O 0.8600(16) 0.5018(10) 0.7266(12)
O25 O 0.984(2) 0.5098(9) 0.6307(12)
O26 O 0.3290(6) 0.9342(5) 0.3736(6)
O27 O 0.0322(8) 0.3442(7) 0.0931(7)
O28 O 0.710(2) 0.1343(16) 0.0515(15)
O29? O 1.077(3) 0.5299(11) 0.652(5)
O11C O 0.2865(6) 0.1661(5) 0.5011(5)
O12C O 0.2000(7) 0.2474(5) 0.2145(5)
O13C O 0.3071(7) 0.1832(5) 0.2704(5)
O14* O 0.1880(5) 0.1163(5) 0.3527(6)
O15* O 0.1176(6) 0.2046(5) 0.3514(7)
Mn1* Mn 1.30595(10) 0.16479(9) 0.38663(9)
Mn1C Mn 0.80595(10) 0.33521(9) -0.11337(9)
Mn1C* Mn 0.80595(10) 0.33521(9) 0.88663(9)
Mn2* Mn 1.16368(12) 0.28896(9) 0.30870(11)
Mn2C Mn 0.66368(12) 0.21104(9) 0.80870(11)
O17B O 0.5795(12) 0.4441(7) 0.442(1)
O18B O 0.5378(16) 0.4397(8) 0.6021(10)
O19B O 0.3946(11) 0.4356(9) 0.4582(11)
#END
