
#######################################################################
#
#                 Cambridge Crystallographic Data Centre
#                                CCDC
#
#######################################################################
#
# If this CIF has been generated from an entry in the Cambridge
# Structural Database, then it will include bibliographic, chemical,
# crystal, experimental, refinement or atomic coordinate data resulting
# from the CCDC's data processing and validation procedures.
#
#######################################################################

data_CSD_CIF_ZOZCIC
_audit_creation_date 2015-03-27
_audit_creation_method CSD-ConQuest-V1
_database_code_CSD ZOZCIC
_database_code_depnum_ccdc_archive 'CCDC 1056614'
_chemical_formula_sum 'C80 H122 N4 O35 U4'
_chemical_formula_moiety
;
(C72 H84 O32 U4 4-)n,4n(C2 H8 N1 1+),3n(H2 O1)
;
_journal_coden_Cambridge 9
_journal_volume 54
_journal_year 2015
_journal_page_first 2838
_journal_name_full 'Inorg.Chem. '
loop_
_publ_author_name
"P.Thuery"
"E.Riviere"
"J.Harrowfield"
_chemical_name_systematic
;
catena-(tetrakis(Dimethylammonium) 
hexakis(\m~2~-adamantane-1,3-dicarboxylato)-octaoxo-tetra-uranium trihydrate)
;
_cell_volume   2223.551
_exptl_crystal_colour 'light yellow'
_exptl_crystal_density_diffrn 1.98
_exptl_special_details
;
Absolute configuration

;
_exptl_crystal_description 'irregular'
_diffrn_ambient_temperature 150
#These two values have been output from a single CSD field.
_refine_ls_R_factor_gt 0.0441
_refine_ls_wR_factor_gt 0.0441
_symmetry_cell_setting triclinic
_symmetry_space_group_name_H-M 'P 1'
_symmetry_Int_Tables_number 1
loop_
_symmetry_equiv_pos_site_id
_symmetry_equiv_pos_as_xyz
1 x,y,z
_cell_length_a 12.3331(7)
_cell_length_b 14.7388(8)
_cell_length_c 14.9946(8)
_cell_angle_alpha 111.546(2)
_cell_angle_beta 105.075(3)
_cell_angle_gamma 106.267(3)
_cell_formula_units_Z 1
loop_
_atom_type_symbol
_atom_type_radius_bond
C 0.68
H 0.23
N 0.68
O 0.68
U 1.96
loop_
_atom_site_label
_atom_site_type_symbol
_atom_site_fract_x
_atom_site_fract_y
_atom_site_fract_z
U1 U 0.44523(3) 1.03342(3) 1.45241(3)
U2 U 0.65923(3) 0.79601(3) 0.86780(3)
U3 U 0.69015(3) 0.45513(3) 0.20302(3)
U4 U 0.13737(3) -0.31540(3) -0.19171(3)
O1 O 0.5527(8) 1.0751(7) 1.5780(6)
O2 O 0.3370(9) 0.9878(7) 1.3253(7)
O3 O 0.7932(7) 0.7818(7) 0.9254(6)
O4 O 0.5244(8) 0.8107(7) 0.8127(7)
O5 O 0.7958(8) 0.4247(7) 0.2782(7)
O6 O 0.5878(9) 0.4878(8) 0.1299(7)
O7 O 0.2733(8) -0.3192(7) -0.1192(7)
O8 O 0.0023(8) -0.3110(7) -0.2610(8)
O9 O 0.6035(8) 1.1699(6) 1.4315(7)
O10 O 0.5912(8) 1.0060(6) 1.3763(6)
O11 O 0.6587(7) 0.8732(6) 1.0446(6)
O12 O 0.7558(7) 0.9905(6) 1.0039(6)
O13 O 0.4334(7) 0.8465(6) 1.4000(6)
O14 O 0.3050(8) 0.8898(6) 1.4658(6)
O15 O 0.1413(9) 0.5685(6) 1.6429(6)
O16 O 0.2359(7) 0.7418(6) 1.7041(6)
O17 O 0.3045(8) 1.0892(6) 1.5250(8)
O18 O 0.4492(9) 1.2160(7) 1.5261(7)
O19 O 0.5581(8) 1.6005(6) 1.7549(6)
O20 O 0.5316(8) 1.6547(6) 1.9017(6)
O21 O 0.7728(8) 0.9110(6) 0.8104(6)
O22 O 0.6844(8) 0.7382(6) 0.7027(6)
O23 O 0.8311(8) 0.6544(6) 0.3143(6)
O24 O 0.6948(8) 0.5787(7) 0.3642(7)
O25 O 0.5305(8) 0.3739(6) 0.2554(6)
O26 O 0.5405(8) 0.2676(6) 0.1135(7)
O27 O 0.2349(8) -0.1186(6) -0.1113(6)
O28 O 0.1499(9) -0.1840(6) -0.0264(7)
O29 O 0.0302(10) -0.3878(7) -0.1017(8)
O30 O 0.0189(8) -0.5075(6) -0.2463(6)
O31 O -0.2977(9) -0.6628(7) 0.0439(7)
O32 O -0.1633(7) -0.4943(6) 0.1241(6)
C1 C 0.7398(11) 1.1226(8) 1.3477(8)
C2 C 0.6845(10) 1.0416(8) 1.2313(8)
H1 H 0.61430 1.05180 1.19290
H2 H 0.65270 0.96780 1.22230
C3 C 0.7814(10) 1.0557(8) 1.1858(8)
C4 C 0.8302(10) 1.1695(8) 1.1994(8)
H3 H 0.76200 1.18130 1.16050
H4 H 0.89400 1.17930 1.17080
C5 C 0.8861(11) 1.2505(9) 1.3165(9)
H5 H 0.91650 1.32490 1.32500
C6 C 0.7899(11) 1.2363(8) 1.3612(8)
H6 H 0.72130 1.24930 1.32470
H7 H 0.82700 1.28920 1.43660
C7 C 0.8462(11) 1.1042(9) 1.4070(9)
H8 H 0.81520 1.03010 1.39740
H9 H 0.88150 1.15500 1.48300
C8 C 0.9480(11) 1.1220(9) 1.3630(9)
H10 H 1.01810 1.11080 1.40180
C9 C 0.890(1) 1.0378(9) 1.2455(8)
H11 H 0.85930 0.96450 1.23780
H12 H 0.95300 1.04540 1.21600
C10 C 0.9965(10) 1.2349(9) 1.3759(9)
H13 H 1.05970 1.24450 1.34670
H14 H 1.03500 1.28850 1.45120
C11 C 0.6388(10) 1.0987(8) 1.3871(8)
C12 C 0.7292(10) 0.9708(9) 1.0723(9)
C13 C 0.2987(10) 0.7153(8) 1.4301(8)
C14 C 0.2809(12) 0.7345(9) 1.5335(9)
H15 H 0.36210 0.77920 1.59400
H16 H 0.22800 0.77400 1.54170
C15 C 0.2206(10) 0.6273(8) 1.5325(8)
C16 C 0.0942(11) 0.5589(9) 1.4395(8)
H17 H 0.03980 0.59700 1.44690
H18 H 0.05490 0.49000 1.43870
C17 C 0.1097(11) 0.5371(9) 1.3358(8)
H19 H 0.02720 0.49090 1.27520
C18 C 0.1672(10) 0.6458(9) 1.3369(8)
H20 H 0.11350 0.68430 1.34590
H21 H 0.17440 0.63300 1.26960
C19 C 0.3779(11) 0.6548(9) 1.4176(9)
H22 H 0.46120 0.69900 1.47560
H23 H 0.38720 0.64030 1.35070
C20 C 0.3207(12) 0.5493(9) 1.4180(9)
H24 H 0.37600 0.51140 1.41030
C21 C 0.3048(11) 0.5671(10) 1.5203(9)
H25 H 0.38630 0.61000 1.58070
H26 H 0.26690 0.49720 1.51820
C22 C 0.1968(12) 0.4800(9) 1.3253(9)
H27 H 0.16010 0.40970 1.32280
H28 H 0.20790 0.46720 1.25930
C23 C 0.3504(10) 0.8230(8) 1.4318(8)
C24 C 0.2007(10) 0.6474(9) 1.6314(8)
C25 C 0.3654(11) 1.2680(9) 1.6558(9)
C26 C 0.4407(11) 1.3849(9) 1.6859(9)
H29 H 0.40660 1.39940 1.62770
H30 H 0.52750 1.39690 1.69760
C27 C 0.4372(11) 1.4624(9) 1.7861(9)
C28 C 0.4922(11) 1.4395(9) 1.8768(9)
H31 H 0.58000 1.45420 1.89120
H32 H 0.48840 1.48780 1.94130
C29 C 0.4201(13) 1.3226(10) 1.8476(10)
H33 H 0.45720 1.30850 1.90610
C30 C 0.4212(12) 1.2469(9) 1.7480(11)
H34 H 0.37260 1.17180 1.73000
H35 H 0.50720 1.25650 1.75900
C31 C 0.2325(11) 1.2507(9) 1.6429(9)
H36 H 0.19300 1.26240 1.58410
H37 H 0.18480 1.17550 1.62500
C32 C 0.2285(11) 1.3265(9) 1.7424(9)
H38 H 0.14100 1.31460 1.73080
C33 C 0.3042(10) 1.4428(9) 1.7694(9)
H39 H 0.26660 1.45660 1.71170
H40 H 0.30250 1.49320 1.83400
C34 C 0.2845(12) 1.3056(10) 1.831(1)
H41 H 0.23540 1.23110 1.81410
H42 H 0.28320 1.35520 1.89630
C35 C 0.3674(12) 1.1870(9) 1.5619(10)
C36 C 0.5133(11) 1.5781(8) 1.8149(9)
C37 C 0.7977(10) 0.8528(8) 0.6462(8)
C38 C 0.7670(11) 0.7461(8) 0.5529(8)
H43 H 0.80470 0.70450 0.57840
H44 H 0.67630 0.70350 0.51740
C39 C 0.8154(10) 0.7657(9) 0.4750(8)
C40 C 0.7528(10) 0.8310(9) 0.4354(8)
H45 H 0.78290 0.84470 0.38450
H46 H 0.66210 0.78860 0.39940
C41 C 0.7837(10) 0.9378(8) 0.5283(8)
H47 H 0.74360 0.97910 0.50290
C42 C 0.7369(11) 0.9163(9) 0.6079(9)
H48 H 0.75720 0.98530 0.66820
H49 H 0.64600 0.87510 0.57410
C43 C 0.9376(11) 0.9194(9) 0.7015(8)
H50 H 0.97840 0.87990 0.72810
H51 H 0.95760 0.98830 0.76190
C44 C 0.9841(10) 0.9406(9) 0.6222(8)
H52 H 1.07560 0.98430 0.65860
C45 C 0.9581(10) 0.8345(9) 0.5310(9)
H53 H 0.99980 0.79550 0.55760
H54 H 0.99000 0.84840 0.48100
C46 C 0.9253(11) 1.0036(9) 0.5837(9)
H55 H 0.95720 1.01840 0.53400
H56 H 0.94600 1.07310 0.64360
C47 C 0.7483(11) 0.8327(9) 0.7228(9)
C48 C 0.7796(11) 0.6627(9) 0.3811(9)
C49 C 0.3539(10) 0.2013(8) 0.1390(8)
C50 C 0.342(1) 0.0876(8) 0.0720(9)
H57 H 0.36320 0.08500 0.01210
H58 H 0.40050 0.07040 0.11500
C51 C 0.2124(10) 0.0065(8) 0.0321(8)
C52 C 0.1224(11) 0.0332(9) -0.0322(9)
H59 H 0.03690 -0.01980 -0.05720
H60 H 0.13910 0.02940 -0.09430
C53 C 0.1356(12) 0.1471(10) 0.0353(10)
H61 H 0.07590 0.16430 -0.00770
C54 C 0.2647(12) 0.2285(9) 0.0739(10)
H62 H 0.27250 0.30130 0.11700
H63 H 0.28420 0.22740 0.01350
C55 C 0.3266(10) 0.2042(9) 0.2344(9)
H64 H 0.38600 0.18710 0.27660
H65 H 0.33530 0.27680 0.27940
C56 C 0.1936(11) 0.1208(9) 0.1945(9)
H66 H 0.17360 0.12310 0.25560
C57 C 0.1780(11) 0.0071(8) 0.1253(9)
H67 H 0.09150 -0.04500 0.09820
H68 H 0.23270 -0.01380 0.16710
C58 C 0.1049(11) 0.1481(10) 0.1287(10)
H69 H 0.11100 0.22010 0.17260
H70 H 0.01900 0.09520 0.10250
C59 C 0.4824(12) 0.2841(9) 0.173(1)
C60 C 0.1996(11) -0.1035(8) -0.0371(8)
C61 C -0.0457(11) -0.5719(9) -0.1337(9)
C62 C -0.1097(10) -0.5388(9) -0.0589(8)
H71 H -0.05270 -0.46820 0.00300
H72 H -0.18420 -0.53230 -0.09550
C63 C -0.1463(10) -0.6244(8) -0.0235(8)
C64 C -0.0312(11) -0.6312(10) 0.0357(9)
H73 H -0.05380 -0.68440 0.06070
H74 H 0.02600 -0.56050 0.09750
C65 C 0.0330(12) -0.6658(10) -0.0402(9)
H75 H 0.10820 -0.67190 -0.00230
C66 C 0.0719(11) -0.5808(9) -0.0742(9)
H76 H 0.11460 -0.60100 -0.12080
H77 H 0.12970 -0.51070 -0.01200
C67 C -0.1331(11) -0.6802(8) -0.2288(9)
H78 H -0.20790 -0.67540 -0.26740
H79 H -0.09210 -0.70100 -0.27670
C68 C -0.1695(11) -0.7642(9) -0.1943(9)
H80 H -0.22790 -0.83510 -0.25700
C69 C -0.2314(11) -0.7318(10) -0.1201(9)
H81 H -0.30730 -0.72740 -0.15720
H82 H -0.25590 -0.78750 -0.09830
C70 C -0.0554(12) -0.7742(9) -0.1342(10)
H83 H -0.08100 -0.82810 -0.11060
H84 H -0.01400 -0.79830 -0.18090
C71 C 0.0014(12) -0.4869(9) -0.1648(9)
C72 C -0.2066(11) -0.5920(8) 0.0515(9)
O33 O 0.7538(9) 1.5381(7) 1.7532(7)
O34 O 0.5685(10) 1.0874(9) 0.9843(8)
O35 O 0.1180(11) -0.2631(10) 0.1218(10)
N1 N 0.4062(9) 0.9538(8) 0.7810(8)
H85 H 0.37580 0.88020 0.75210
H86 H 0.44170 0.98240 0.85280
C73 C 0.3036(13) 0.9842(12) 0.7517(12)
H87 H 0.27850 0.96890 0.67820
H88 H 0.33070 1.06110 0.79680
H89 H 0.23350 0.94290 0.76050
C74 C 0.5031(14) 0.9930(11) 0.7439(11)
H90 H 0.53660 1.07140 0.77550
H91 H 0.46590 0.96150 0.66730
H92 H 0.56990 0.97150 0.76470
N2 N 0.6765(11) 1.4068(9) 1.5387(9)
H93 H 0.69300 1.42100 1.60710
H94 H 0.65400 1.33470 1.49880
C75 C 0.7895(13) 1.4702(12) 1.5327(11)
H95 H 0.81180 1.54700 1.57340
H96 H 0.77320 1.45180 1.45930
H97 H 0.85770 1.45340 1.56150
C76 C 0.5713(14) 1.4349(14) 1.4993(11)
H98 H 0.56250 1.43080 1.43090
H99 H 0.58890 1.50790 1.54940
H100 H 0.49450 1.38410 1.49220
N3 N 0.9560(9) 0.7457(8) 0.2154(8)
H101 H 1.00510 0.71990 0.18630
H102 H 0.92860 0.70580 0.24630
C77 C 0.8479(14) 0.7321(12) 0.1309(12)
H103 H 0.87670 0.76480 0.09030
H104 H 0.80060 0.76720 0.16210
H105 H 0.79510 0.65540 0.08450
C78 C 1.0314(14) 0.860(1) 0.2974(11)
H106 H 0.98120 0.88650 0.33210
H107 H 1.05910 0.90330 0.26470
H108 H 1.10350 0.86530 0.34940
N4 N 0.472(1) -0.2522(9) 0.0776(8)
H109 H 0.42310 -0.29620 0.00710
H110 H 0.54070 -0.20080 0.08390
C79 C 0.4016(15) -0.1979(15) 0.1280(13)
H111 H 0.45300 -0.15060 0.20310
H112 H 0.32600 -0.25220 0.11860
H113 H 0.37980 -0.15520 0.09530
C80 C 0.5107(18) -0.3147(15) 0.1217(13)
H114 H 0.43830 -0.36900 0.11640
H115 H 0.56750 -0.26770 0.19570
H116 H 0.55270 -0.35030 0.08330
U2* U 0.65923(3) 1.79601(3) 1.86780(3)
U3* U -0.30985(3) -0.54487(3) 0.20302(3)
U4* U 0.13737(3) 0.68460(3) 1.80829(3)
O15* O 0.1413(9) -0.4315(6) -0.3571(6)
O16* O 0.2359(7) -0.2582(6) -0.2959(6)
O19* O 0.5581(8) 0.6005(6) 0.7549(6)
O20* O 0.5316(8) 0.6547(6) 0.9017(6)
O31* O 0.7023(9) 0.3372(7) 0.0439(7)
O32* O 0.8367(7) 0.5057(6) 0.1241(6)
#END
