
#######################################################################
#
#                 Cambridge Crystallographic Data Centre
#                                CCDC
#
#######################################################################
#
# If this CIF has been generated from an entry in the Cambridge
# Structural Database, then it will include bibliographic, chemical,
# crystal, experimental, refinement or atomic coordinate data resulting
# from the CCDC's data processing and validation procedures.
#
#######################################################################

data_CSD_CIF_ZOZDIE
_audit_creation_date 2020-01-11
_audit_creation_method CSD-ConQuest-V1
_database_code_CSD ZOZDIE
_database_code_depnum_ccdc_archive 'CCDC 1976963'
_chemical_formula_sum 'C18 H38 Ag5 I6 K1 N2 O8'
_chemical_formula_moiety
;
C15 H31 K1 N1 O7 1+,n(Ag5 I6 1-),C3 H7 N1 O1
;
_journal_coden_Cambridge 1078
_journal_year 2020
_journal_name_full 'CSD Communication(Private Communication) '
loop_
_publ_author_name
"Yuan-Bo Tong"
_chemical_name_systematic
;
catena-[(18-crown-6)-(N,N-dimethylformamide)-potassium 
hexakis(\m-iodo)-penta-silver N,N-dimethylformamide solvate]
;
_cell_volume   1980.604
_exptl_crystal_colour 'white'
_exptl_crystal_density_diffrn 2.935
_exptl_crystal_description 'needle'
_diffrn_ambient_temperature 150
_diffrn_special_details
;
twin

;
#These two values have been output from a single CSD field.
_refine_ls_R_factor_gt 0.0289
_refine_ls_wR_factor_gt 0.0289
_symmetry_cell_setting monoclinic
_symmetry_space_group_name_H-M 'P 21'
_symmetry_Int_Tables_number 4
loop_
_symmetry_equiv_pos_site_id
_symmetry_equiv_pos_as_xyz
1 x,y,z
2 -x,1/2+y,-z
_cell_length_a 14.8649(13)
_cell_length_b 8.0237(7)
_cell_length_c 16.6540(14)
_cell_angle_alpha 90
_cell_angle_beta 94.358(2)
_cell_angle_gamma 90
_cell_formula_units_Z 2
loop_
_atom_type_symbol
_atom_type_radius_bond
C 0.68
H 0.23
Ag 1.45
I 1.40
K 2.03
N 0.68
O 0.68
loop_
_atom_site_label
_atom_site_type_symbol
_atom_site_fract_x
_atom_site_fract_y
_atom_site_fract_z
C1 C 0.7225(7) 0.1990(14) 0.8701(7)
H1 H 0.77280 0.26020 0.89920
H2 H 0.70840 0.25380 0.81740
C2 C 0.7491(7) 0.0193(17) 0.8578(7)
H3 H 0.80530 0.01430 0.82950
H4 H 0.76010 -0.03710 0.91050
C3 C 0.7013(8) -0.2299(16) 0.7928(9)
H5 H 0.71260 -0.29500 0.84310
H6 H 0.75670 -0.23220 0.76340
C4 C 0.6242(8) -0.3042(18) 0.7420(8)
H7 H 0.61190 -0.23700 0.69250
H8 H 0.63960 -0.41880 0.72590
C5 C 0.4710(9) -0.3793(16) 0.7407(8)
H9 H 0.48610 -0.49420 0.72480
H10 H 0.45720 -0.31330 0.69100
C6 C 0.3901(8) -0.3825(14) 0.7893(9)
H11 H 0.33890 -0.43690 0.75810
H12 H 0.40390 -0.44700 0.83940
C7 C 0.2827(8) -0.2071(15) 0.8441(8)
H13 H 0.28800 -0.25850 0.89830
H14 H 0.23530 -0.26680 0.81050
C8 C 0.2587(8) -0.0250(15) 0.8502(8)
H15 H 0.25450 0.02660 0.79610
H16 H 0.19960 -0.01300 0.87320
C9 C 0.3052(8) 0.2285(15) 0.9142(7)
H17 H 0.24690 0.23700 0.93900
H18 H 0.30010 0.28970 0.86250
C10 C 0.3793(7) 0.3013(14) 0.9693(7)
H19 H 0.36590 0.41950 0.98070
H20 H 0.38450 0.23960 1.02090
C11 C 0.5341(6) 0.3694(15) 0.9765(6)
H21 H 0.54800 0.30970 1.02800
H22 H 0.51740 0.48560 0.98880
C12 C 0.6158(6) 0.3677(15) 0.9267(6)
H23 H 0.60010 0.41900 0.87340
H24 H 0.66560 0.43280 0.95430
C13 C 0.4520(8) 0.1833(17) 0.6262(8)
H25 H 0.39440 0.15370 0.60160
C14 C 0.5042(9) 0.177(2) 0.4931(8)
H26 H 0.54870 0.09690 0.47620
H27 H 0.51120 0.28300 0.46480
H28 H 0.44330 0.13350 0.48010
C15 C 0.6081(9) 0.251(2) 0.6122(9)
H29 H 0.60700 0.36580 0.63230
H30 H 0.65040 0.24320 0.57000
H31 H 0.62740 0.17580 0.65660
N1 N 0.5183(7) 0.2042(14) 0.5793(6)
O1 O 0.6434(5) 0.2014(10) 0.9168(4)
O2 O 0.6785(5) -0.0602(11) 0.8116(5)
O3 O 0.5461(5) -0.3074(10) 0.7867(5)
O4 O 0.3667(5) -0.2175(9) 0.8084(5)
O5 O 0.3271(5) 0.0556(10) 0.9008(4)
O6 O 0.4618(5) 0.2891(9) 0.9306(4)
O7 O 0.4595(7) 0.1996(14) 0.7001(6)
K1 K 0.49736(14) 0.0249(3) 0.83030(13)
C16 C -0.087(1) 0.576(2) 0.9272(9)
H32 H -0.09180 0.56350 0.87030
C17 C 0.0059(14) 0.582(4) 1.0496(11)
H33 H 0.05650 0.65600 1.06590
H34 H 0.01830 0.47020 1.07130
H35 H -0.04940 0.62550 1.07040
C18 C 0.0749(13) 0.553(5) 0.9250(13)
H36 H 0.06030 0.51360 0.86990
H37 H 0.11360 0.47180 0.95460
H38 H 0.10660 0.66030 0.92340
N2 N -0.0053(9) 0.574(2) 0.9638(8)
O8 O -0.1569(8) 0.593(2) 0.9598(7)
I1 I 0.15676(4) 0.35944(10) 0.70844(4)
I2 I -0.00186(4) -0.13752(10) 0.74183(4)
I3 I -0.25504(4) -0.14836(10) 0.55425(4)
I4 I 0.15678(4) -0.13566(10) 0.31177(4)
I5 I 0.25658(4) -0.14468(9) 0.59399(4)
I6 I -0.00146(4) 0.18338(8) 0.50169(4)
Ag1 Ag 0.10780(6) 0.04300(12) 0.64051(5)
Ag2 Ag 0.17095(6) 0.03257(12) 0.46217(5)
Ag3 Ag -0.00119(6) 0.04882(11) 0.33810(5)
Ag4 Ag -0.17483(6) 0.03843(12) 0.43521(5)
Ag5 Ag -0.11195(6) 0.04595(12) 0.62663(6)
I1A I -0.15676(4) -0.14056(10) 0.29156(4)
I2A I 0.00186(4) 0.36248(10) 0.25817(4)
I3A I 0.25504(4) 0.35164(10) 0.44575(4)
I4A I -0.15678(4) 0.36434(10) 0.68823(4)
I5A I -0.25658(4) 0.35532(9) 0.40601(4)
Ag2A Ag -0.17095(6) -0.46743(12) 0.53783(5)
Ag3A Ag 0.00119(6) -0.45118(11) 0.66190(5)
Ag3A* Ag 0.00119(6) 0.54882(11) 0.66190(5)
Ag4A Ag 0.17483(6) -0.46157(12) 0.56479(5)
Ag4A* Ag 0.17483(6) 0.53843(12) 0.56479(5)
Ag5A Ag 0.11195(6) -0.45405(12) 0.37337(6)
#END
