
#######################################################################
#
#                 Cambridge Crystallographic Data Centre
#                                CCDC
#
#######################################################################
#
# If this CIF has been generated from an entry in the Cambridge
# Structural Database, then it will include bibliographic, chemical,
# crystal, experimental, refinement or atomic coordinate data resulting
# from the CCDC's data processing and validation procedures.
#
#######################################################################

data_CSD_CIF_ZOZDIE02
_audit_creation_date 2020-01-11
_audit_creation_method CSD-ConQuest-V1
_database_code_CSD ZOZDIE02
_database_code_depnum_ccdc_archive 'CCDC 1976965'
_chemical_formula_sum 'C18 H38 Ag5 I6 K1 N2 O8'
_chemical_formula_moiety
;
C15 H31 K1 N1 O7 1+,(Ag5 I6 1-)n,C3 H7 N1 O1
;
_journal_coden_Cambridge 1078
_journal_year 2020
_journal_name_full 'CSD Communication(Private Communication) '
loop_
_publ_author_name
"Yuan-Bo Tong"
_chemical_name_systematic
;
catena-[(18-crown-6)-(N,N-dimethylformamide)-potassium 
hexakis(\m-iodo)-penta-silver N,N-dimethylformamide solvate]
;
_cell_volume   2039.086
_exptl_crystal_colour 'white'
_exptl_crystal_density_diffrn 2.851
_exptl_crystal_description 'needle'
_diffrn_ambient_temperature 350
_diffrn_special_details
;
twin

;
#These two values have been output from a single CSD field.
_refine_ls_R_factor_gt 0.0401
_refine_ls_wR_factor_gt 0.0401
_symmetry_cell_setting monoclinic
_symmetry_space_group_name_H-M 'P 21'
_symmetry_Int_Tables_number 4
loop_
_symmetry_equiv_pos_site_id
_symmetry_equiv_pos_as_xyz
1 x,y,z
2 -x,1/2+y,-z
_cell_length_a 14.9608(12)
_cell_length_b 8.0534(7)
_cell_length_c 16.9580(14)
_cell_angle_alpha 90
_cell_angle_beta 93.632(2)
_cell_angle_gamma 90
_cell_formula_units_Z 2
loop_
_atom_type_symbol
_atom_type_radius_bond
C 0.68
H 0.23
Ag 1.45
I 1.40
K 2.03
N 0.68
O 0.68
loop_
_atom_site_label
_atom_site_type_symbol
_atom_site_fract_x
_atom_site_fract_y
_atom_site_fract_z
C1 C 0.2802(10) 0.814(2) 0.1292(10)
H1 H 0.29300 0.75880 0.17940
H2 H 0.23150 0.75580 0.10070
C2 C 0.2545(10) 0.987(3) 0.1424(11)
H3 H 0.24310 1.04270 0.09200
H4 H 0.19980 0.99030 0.17020
C3 C 0.3009(11) 1.241(2) 0.2056(11)
H5 H 0.29260 1.30580 0.15760
H6 H 0.24590 1.24460 0.23290
C4 C 0.3739(12) 1.307(2) 0.2554(11)
H7 H 0.35890 1.41810 0.27240
H8 H 0.38350 1.23820 0.30210
C5 C 0.5267(14) 1.378(2) 0.2618(13)
H9 H 0.53870 1.30830 0.30800
H10 H 0.51250 1.48870 0.27960
C6 C 0.6068(12) 1.3834(16) 0.2142(12)
H11 H 0.59340 1.44660 0.16620
H12 H 0.65600 1.43730 0.24410
C7 C 0.7161(11) 1.208(2) 0.1626(10)
H13 H 0.76160 1.26030 0.19750
H14 H 0.71470 1.26340 0.11180
C8 C 0.7378(11) 1.027(2) 0.1528(11)
H15 H 0.79580 1.01640 0.13070
H16 H 0.74120 0.97310 0.20400
C9 C 0.6923(9) 0.7802(19) 0.0891(10)
H17 H 0.69620 0.71950 0.13870
H18 H 0.74950 0.77080 0.06560
C10 C 0.6205(10) 0.7071(17) 0.0350(9)
H19 H 0.61690 0.76640 -0.01490
H20 H 0.63390 0.59160 0.02460
C11 C 0.4649(9) 0.647(2) 0.0253(8)
H21 H 0.47960 0.53430 0.01070
H22 H 0.45300 0.71040 -0.02290
C12 C 0.3843(10) 0.6458(19) 0.0710(8)
H23 H 0.33640 0.58620 0.04200
H24 H 0.39720 0.58950 0.12100
C13 C 0.5498(18) 0.810(3) 0.3733(14)
H25 H 0.60670 0.82640 0.39730
C14 C 0.4973(17) 0.811(4) 0.4999(14)
H26 H 0.55130 0.87170 0.51290
H27 H 0.50160 0.70280 0.52410
H28 H 0.44720 0.86920 0.51910
C15 C 0.3982(14) 0.757(3) 0.3782(18)
H29 H 0.38330 0.64270 0.38740
H30 H 0.39880 0.77620 0.32240
H31 H 0.35450 0.82750 0.40010
N1 N 0.4849(10) 0.7922(18) 0.4150(9)
O1 O 0.3569(6) 0.8126(12) 0.0849(5)
O2 O 0.3228(7) 1.0709(13) 0.1869(6)
O3 O 0.4536(6) 1.3126(13) 0.2144(6)
O4 O 0.6310(6) 1.2205(11) 0.1952(6)
O5 O 0.6734(6) 0.9501(12) 0.1036(5)
O6 O 0.5394(6) 0.7191(11) 0.0705(5)
O7 O 0.5390(14) 0.806(2) 0.2971(9)
K1 K 0.5016(2) 0.9823(4) 0.17028(17)
C16 C 0.091(2) 0.448(4) 0.0742(16)
H32 H 0.09840 0.43700 0.12890
C17 C 0.001(3) 0.497(7) -0.0393(16)
H33 H -0.02970 0.40070 -0.06070
H34 H 0.05890 0.50490 -0.06040
H35 H -0.03330 0.59460 -0.05330
C18 C -0.063(2) 0.505(6) 0.091(2)
H36 H -0.04130 0.52220 0.14520
H37 H -0.09980 0.40810 0.08750
H38 H -0.09660 0.60010 0.07280
N2 N 0.0112(15) 0.483(4) 0.0442(12)
O8 O 0.1565(14) 0.427(4) 0.0365(12)
I1 I 0.84175(5) 0.63876(12) 0.29754(4)
I2 I 1.00047(5) 1.13652(12) 0.25953(4)
I3 I 1.25206(5) 1.14496(13) 0.44132(5)
I4 I 0.84322(5) 1.13506(12) 0.68641(4)
I5 I 0.74528(5) 1.14297(12) 0.41021(5)
I6 I 1.00080(5) 0.82235(8) 0.49881(4)
Ag1 Ag 0.89236(8) 0.95638(16) 0.36079(7)
Ag2 Ag 0.82756(8) 0.96702(17) 0.53943(7)
Ag3 Ag 1.00139(8) 0.95152(16) 0.66169(7)
Ag4 Ag 1.17548(8) 0.96076(16) 0.56099(7)
Ag5 Ag 1.10940(8) 0.95390(16) 0.37158(7)
I1A I 1.15825(5) 1.13876(12) 0.70246(4)
I2A I 0.99953(5) 0.63652(12) 0.74047(4)
I3A I 0.74794(5) 0.64496(13) 0.55868(5)
I4A I 1.15678(5) 0.63506(12) 0.31359(4)
I5A I 1.25472(5) 0.64297(12) 0.58979(5)
Ag2A Ag 1.17244(8) 1.46702(17) 0.46057(7)
Ag3A Ag 0.99861(8) 0.45152(16) 0.33831(7)
Ag3A* Ag 0.99861(8) 1.45152(16) 0.33831(7)
Ag4A Ag 0.82452(8) 0.46076(16) 0.43901(7)
Ag4A* Ag 0.82452(8) 1.46076(16) 0.43901(7)
Ag5A Ag 0.89060(8) 1.45390(16) 0.62842(7)
#END
