
#######################################################################
#
#                 Cambridge Crystallographic Data Centre
#                                CCDC
#
#######################################################################
#
# If this CIF has been generated from an entry in the Cambridge
# Structural Database, then it will include bibliographic, chemical,
# crystal, experimental, refinement or atomic coordinate data resulting
# from the CCDC's data processing and validation procedures.
#
#######################################################################

data_CSD_CIF_ZOZDIE01
_audit_creation_date 2020-01-11
_audit_creation_method CSD-ConQuest-V1
_database_code_CSD ZOZDIE01
_database_code_depnum_ccdc_archive 'CCDC 1976964'
_chemical_formula_sum 'C18 H38 Ag5 I6 K1 N2 O8'
_chemical_formula_moiety
;
C15 H31 K1 N1 O7 1+,(Ag5 I6 1-)n,C3 H7 N1 O1
;
_journal_coden_Cambridge 1078
_journal_year 2020
_journal_name_full 'CSD Communication(Private Communication) '
loop_
_publ_author_name
"Yuan-Bo Tong"
_chemical_name_systematic
;
catena-[(18-crown-6)-(N,N-dimethylformamide)-potassium 
hexakis(\m-iodo)-penta-silver N,N-dimethylformamide solvate]
;
_cell_volume   2017.399
_exptl_crystal_colour 'white'
_exptl_crystal_density_diffrn 2.881
_exptl_crystal_description 'needle'
_diffrn_ambient_temperature 300
_diffrn_special_details
;
twin

;
#These two values have been output from a single CSD field.
_refine_ls_R_factor_gt 0.0343
_refine_ls_wR_factor_gt 0.0343
_symmetry_cell_setting monoclinic
_symmetry_space_group_name_H-M 'P 21'
_symmetry_Int_Tables_number 4
loop_
_symmetry_equiv_pos_site_id
_symmetry_equiv_pos_as_xyz
1 x,y,z
2 -x,1/2+y,-z
_cell_length_a 14.9292(11)
_cell_length_b 8.0412(6)
_cell_length_c 16.8459(12)
_cell_angle_alpha 90
_cell_angle_beta 94.001(2)
_cell_angle_gamma 90
_cell_formula_units_Z 2
loop_
_atom_type_symbol
_atom_type_radius_bond
C 0.68
H 0.23
Ag 1.45
I 1.40
K 2.03
N 0.68
O 0.68
loop_
_atom_site_label
_atom_site_type_symbol
_atom_site_fract_x
_atom_site_fract_y
_atom_site_fract_z
C1 C 0.2795(8) 0.8108(17) 0.1298(8)
H1 H 0.29250 0.75620 0.18060
H2 H 0.23030 0.75210 0.10140
C2 C 0.2540(8) 0.9828(18) 0.1425(8)
H3 H 0.24310 1.03830 0.09160
H4 H 0.19900 0.98640 0.16990
C3 C 0.3003(9) 1.2343(16) 0.2058(9)
H5 H 0.24520 1.23770 0.23310
H6 H 0.29140 1.29810 0.15700
C4 C 0.3754(9) 1.3050(17) 0.2571(8)
H7 H 0.36020 1.41660 0.27350
H8 H 0.38610 1.23730 0.30450
C5 C 0.5281(9) 1.3769(15) 0.2617(9)
H9 H 0.54120 1.30820 0.30840
H10 H 0.51390 1.48820 0.27920
C6 C 0.6072(9) 1.3818(13) 0.2125(9)
H11 H 0.59230 1.44320 0.16380
H12 H 0.65690 1.43770 0.24150
C7 C 0.7161(8) 1.2072(15) 0.1599(8)
H13 H 0.76230 1.26260 0.19350
H14 H 0.71250 1.26010 0.10800
C8 C 0.7385(8) 1.0261(15) 0.1520(8)
H15 H 0.79680 1.01440 0.13050
H16 H 0.74120 0.97360 0.20390
C9 C 0.6923(8) 0.7777(15) 0.0878(8)
H17 H 0.69660 0.71810 0.13800
H18 H 0.74950 0.76820 0.06420
C10 C 0.6213(8) 0.7042(13) 0.0344(7)
H19 H 0.61710 0.76300 -0.01600
H20 H 0.63510 0.58860 0.02430
C11 C 0.4652(7) 0.6398(16) 0.0249(6)
H21 H 0.48070 0.52640 0.01170
H22 H 0.45270 0.70070 -0.02430
C12 C 0.3844(7) 0.6400(15) 0.0718(6)
H23 H 0.33620 0.57920 0.04330
H24 H 0.39820 0.58530 0.12250
C13 C 0.5477(12) 0.815(2) 0.3739(9)
H25 H 0.60390 0.84140 0.39800
C14 C 0.4960(12) 0.817(3) 0.5024(9)
H26 H 0.55300 0.86940 0.51550
H27 H 0.49430 0.71130 0.52830
H28 H 0.44890 0.88680 0.51980
C15 C 0.3944(10) 0.753(2) 0.3837(11)
H29 H 0.39070 0.63520 0.37440
H30 H 0.38290 0.81100 0.33420
H31 H 0.35060 0.78480 0.41990
N1 N 0.4839(7) 0.7948(14) 0.4179(7)
O1 O 0.3569(5) 0.8062(9) 0.0847(4)
O2 O 0.3228(5) 1.0655(10) 0.1881(5)
O3 O 0.4539(5) 1.3095(10) 0.2142(4)
O4 O 0.6320(5) 1.2187(9) 0.1942(5)
O5 O 0.6730(4) 0.9481(9) 0.1015(4)
O6 O 0.5387(5) 0.7156(9) 0.0705(4)
O7 O 0.5403(9) 0.8024(16) 0.2985(7)
K1 K 0.50206(15) 0.9788(3) 0.17045(14)
C16 C 1.0900(13) 0.437(3) 0.0737(10)
H32 H 1.09690 0.43790 0.12900
C17 C 0.9945(17) 0.463(5) -0.0448(11)
H33 H 0.98720 0.35140 -0.06480
H34 H 1.04570 0.51310 -0.06660
H35 H 0.94170 0.52640 -0.05990
C18 C 0.9297(15) 0.470(5) 0.0834(16)
H36 H 0.94530 0.51700 0.13480
H37 H 0.90500 0.36080 0.08960
H38 H 0.88600 0.53930 0.05500
N2 N 1.0078(10) 0.459(3) 0.0398(8)
O8 O 1.1560(9) 0.416(3) 0.0381(8)
I1 I 0.84206(4) 0.63951(9) 0.29542(4)
I2 I 1.00089(4) 1.13686(10) 0.25942(4)
I3 I 1.25312(4) 1.14629(10) 0.44318(4)
I4 I 0.84355(4) 1.13519(9) 0.68723(4)
I5 I 0.74473(4) 1.14347(9) 0.40881(4)
I6 I 1.00100(4) 0.82041(7) 0.49866(3)
Ag1 Ag 0.89224(6) 0.95661(12) 0.36035(5)
Ag2 Ag 0.82822(7) 0.96755(13) 0.53895(5)
Ag3 Ag 1.00151(6) 0.95165(12) 0.66184(6)
Ag4 Ag 1.17539(7) 0.96109(13) 0.56248(6)
Ag5 Ag 1.11045(7) 0.95385(12) 0.37252(6)
I1A I 1.15794(4) 1.13951(9) 0.70458(4)
I2A I 0.99911(4) 0.63686(10) 0.74058(4)
I3A I 0.74688(4) 0.64629(10) 0.55682(4)
I4A I 1.15645(4) 0.63519(9) 0.31277(4)
I5A I 1.25527(4) 0.64347(9) 0.59119(4)
Ag2A Ag 1.17178(7) 1.46755(13) 0.46105(5)
Ag3A Ag 0.99849(6) 0.45165(12) 0.33816(6)
Ag3A* Ag 0.99849(6) 1.45165(12) 0.33816(6)
Ag4A Ag 0.82461(7) 0.46109(13) 0.43752(6)
Ag4A* Ag 0.82461(7) 1.46109(13) 0.43752(6)
Ag5A Ag 0.88955(7) 1.45385(12) 0.62748(6)
#END
