
#######################################################################
#
#                 Cambridge Crystallographic Data Centre
#                                CCDC
#
#######################################################################
#
# If this CIF has been generated from an entry in the Cambridge
# Structural Database, then it will include bibliographic, chemical,
# crystal, experimental, refinement or atomic coordinate data resulting
# from the CCDC's data processing and validation procedures.
#
#######################################################################

data_CSD_CIF_ZOZDEZ
_audit_creation_date 2015-03-27
_audit_creation_method CSD-ConQuest-V1
_database_code_CSD ZOZDEZ
_database_code_depnum_ccdc_archive 'CCDC 1056618'
_chemical_formula_sum 'C66 H72 N6 Ni1 O25 U4'
_chemical_formula_moiety
;
(C36 H42 O22 U4 2-)n,n(C30 H24 N6 Ni1 2+),3n(H2 O1)
;
_journal_coden_Cambridge 9
_journal_volume 54
_journal_year 2015
_journal_page_first 2838
_journal_name_full 'Inorg.Chem. '
loop_
_publ_author_name
"P.Thuery"
"E.Riviere"
"J.Harrowfield"
_chemical_name_systematic
;
catena-(tris(2,2'-Bipyridine)-nickel 
(\m~4~-adamantane-1,3-dicarboxylato)-bis(\m~3~-adamantane-1,3-dicarboxylato)-b
is(\m~3~-oxo)-octaoxo-tetra-uranium trihydrate)
;
_cell_volume   3627.676
_exptl_crystal_colour 'light orange'
_exptl_crystal_density_diffrn 2.161
_exptl_crystal_description 'platelet'
_diffrn_ambient_temperature 150
_refine_special_details
;
One of the water molecules is disordered by symmetry.

;
#These two values have been output from a single CSD field.
_refine_ls_R_factor_gt 0.0275
_refine_ls_wR_factor_gt 0.0275
_symmetry_cell_setting triclinic
_symmetry_space_group_name_H-M 'P -1'
_symmetry_Int_Tables_number 2
loop_
_symmetry_equiv_pos_site_id
_symmetry_equiv_pos_as_xyz
1 x,y,z
2 -x,-y,-z
_cell_length_a 14.0975(5)
_cell_length_b 14.5802(3)
_cell_length_c 20.5052(7)
_cell_angle_alpha 102.9388(17)
_cell_angle_beta 97.3018(15)
_cell_angle_gamma 114.3083(16)
_cell_formula_units_Z 2
loop_
_atom_type_symbol
_atom_type_radius_bond
C 0.68
H 0.23
N 0.68
Ni 1.24
O 0.68
U 1.96
loop_
_atom_site_label
_atom_site_type_symbol
_atom_site_fract_x
_atom_site_fract_y
_atom_site_fract_z
U1 U 0.140213(12) 0.096142(11) 0.526226(7)
U2 U 0.099846(12) -0.179686(12) 0.527136(8)
U3 U 0.475665(12) -0.068205(11) 0.909295(7)
U4 U 0.482590(12) -0.798468(12) 0.937967(7)
O1 O 0.1306(2) 0.1459(2) 0.61198(14)
O2 O 0.1592(2) 0.0507(2) 0.44299(15)
O3 O 0.0735(3) -0.1825(2) 0.60894(16)
O4 O 0.1293(2) -0.1835(2) 0.44525(15)
O5 O 0.3365(2) -0.1019(2) 0.89332(15)
O6 O 0.6145(2) -0.0351(2) 0.91689(15)
O7 O 0.3420(2) -0.8758(2) 0.92436(15)
O8 O 0.6219(2) -0.7155(3) 0.95130(17)
O9 O 0.2424(2) 0.0027(2) 0.57334(14)
O10 O 0.3355(2) 0.1671(2) 0.57677(16)
O11 O 0.4917(2) 0.0699(2) 0.84530(13)
O12 O 0.4677(3) -0.0845(2) 0.78591(14)
O13 O 0.2114(2) 0.2675(2) 0.51235(17)
O14 O 0.0780(2) 0.3082(2) 0.52606(16)
O15 O 0.2571(2) 0.7885(2) 0.55892(17)
O16 O 0.0999(2) 0.6508(2) 0.51083(18)
O17 O 0.4200(3) -0.2530(2) 0.86578(16)
O18 O 0.5078(3) -0.2844(2) 0.94811(15)
O19 O 0.4492(3) -0.6475(3) 0.93305(15)
O20 O 0.4414(3) -0.7482(2) 0.83387(15)
O21 O 0.0250(2) -0.0723(2) 0.51827(14)
O22 O 0.4838(2) -0.0909(2) 1.01495(13)
C1 C 0.4326(3) 0.0885(3) 0.62828(19)
C2 C 0.4125(3) 0.0493(3) 0.69133(19)
H1 H 0.39360 0.09670 0.72380
H2 H 0.35150 -0.02260 0.67620
C3 C 0.5130(3) 0.0476(3) 0.72764(19)
C4 C 0.6071(3) 0.1604(4) 0.7516(2)
H3 H 0.58940 0.20860 0.78410
H4 H 0.67250 0.16030 0.77580
C5 C 0.6278(3) 0.1987(4) 0.6886(2)
H5 H 0.68910 0.27160 0.70410
C6 C 0.5275(3) 0.2007(3) 0.6525(2)
H6 H 0.54090 0.22680 0.61230
H7 H 0.50980 0.24940 0.68470
C7 C 0.4627(3) 0.0153(3) 0.5779(2)
H8 H 0.40210 -0.05700 0.56090
H9 H 0.47640 0.04110 0.53760
C8 C 0.5632(3) 0.0125(4) 0.6140(2)
H10 H 0.58150 -0.03590 0.58100
C9 C 0.5407(4) -0.0279(4) 0.6761(2)
H11 H 0.60470 -0.03120 0.69940
H12 H 0.48000 -0.10010 0.66020
C10 C 0.6567(4) 0.1236(4) 0.6387(2)
H13 H 0.67250 0.14920 0.59860
H14 H 0.72170 0.12240 0.66250
C11 C 0.3330(3) 0.0877(3) 0.5911(2)
C12 C 0.4893(3) 0.0080(3) 0.7891(2)
C13 C 0.2338(3) 0.4355(3) 0.5032(2)
C14 C 0.1900(3) 0.5142(3) 0.5274(2)
H15 H 0.19690 0.52980 0.57780
H16 H 0.11290 0.48280 0.50400
C15 C 0.2525(3) 0.6167(3) 0.5106(2)
C16 C 0.3725(3) 0.6657(3) 0.5460(2)
H17 H 0.41280 0.73090 0.53420
H18 H 0.38280 0.68450 0.59680
C17 C 0.4145(3) 0.5868(3) 0.5221(2)
H19 H 0.49230 0.61850 0.54580
C18 C 0.3534(3) 0.4843(3) 0.5390(2)
H20 H 0.36290 0.49940 0.58960
H21 H 0.38220 0.43410 0.52300
C19 C 0.2206(3) 0.4111(3) 0.4236(2)
H22 H 0.24730 0.35940 0.40680
H23 H 0.14370 0.38000 0.39980
C20 C 0.2838(4) 0.5131(3) 0.4075(2)
H24 H 0.27560 0.49710 0.35650
C21 C 0.2391(4) 0.5906(4) 0.4317(2)
H25 H 0.16210 0.55890 0.40800
H26 H 0.27790 0.65620 0.41980
C22 C 0.4022(3) 0.5617(4) 0.4433(2)
H27 H 0.44280 0.62730 0.43190
H28 H 0.43140 0.51170 0.42740
C23 C 0.1717(3) 0.3307(3) 0.5158(2)
C24 C 0.2017(3) 0.6896(3) 0.5294(2)
C25 C 0.4043(3) -0.4261(3) 0.8433(2)
C26 C 0.4418(3) -0.4916(3) 0.8796(2)
H29 H 0.52120 -0.45850 0.89230
H30 H 0.41650 -0.49300 0.92240
C27 C 0.3970(4) -0.6046(3) 0.8314(2)
C28 C 0.2751(4) -0.6556(4) 0.8109(3)
H31 H 0.24700 -0.65900 0.85260
H32 H 0.24670 -0.72870 0.77990
C29 C 0.2374(4) -0.5914(4) 0.7739(3)
H33 H 0.15710 -0.62520 0.76090
C30 C 0.2820(4) -0.4782(4) 0.8235(2)
H34 H 0.25730 -0.43600 0.80070
H35 H 0.25460 -0.48070 0.86550
C31 C 0.4451(4) -0.4229(4) 0.7773(2)
H36 H 0.42080 -0.38140 0.75360
H37 H 0.52460 -0.38840 0.78940
C32 C 0.4012(5) -0.5363(4) 0.7292(2)
H38 H 0.42810 -0.53450 0.68640
C33 C 0.4365(5) -0.6030(4) 0.7650(2)
H39 H 0.51580 -0.57270 0.77640
H40 H 0.40630 -0.67600 0.73360
C34 C 0.2794(5) -0.5866(4) 0.7099(2)
H41 H 0.25540 -0.54470 0.68650
H42 H 0.25020 -0.65890 0.67760
C35 C 0.4478(4) -0.3132(3) 0.8893(2)
C36 C 0.4317(4) -0.6699(3) 0.8675(2)
Ni1 Ni 0.06651(4) 0.26236(5) 0.18394(3)
N1 N 0.0321(3) 0.3669(3) 0.25324(18)
N2 N 0.1610(3) 0.4091(3) 0.1695(2)
N3 N -0.0535(3) 0.2435(3) 0.10284(18)
N4 N 0.0953(3) 0.1757(3) 0.0991(2)
N5 N -0.0260(3) 0.1328(3) 0.21300(18)
N6 N 0.1828(3) 0.2574(3) 0.25480(18)
C37 C -0.0285(4) 0.3455(4) 0.2987(2)
H43 H -0.05050 0.27820 0.30570
C38 C -0.0611(4) 0.4128(5) 0.3359(3)
H44 H -0.10420 0.39210 0.36700
C39 C -0.0293(5) 0.5126(5) 0.3269(3)
H45 H -0.05050 0.56150 0.35140
C40 C 0.0348(4) 0.5382(4) 0.2805(3)
H46 H 0.05880 0.60560 0.27360
C41 C 0.0633(4) 0.4639(4) 0.2444(2)
C42 C 0.1319(4) 0.4853(4) 0.1947(2)
C43 C 0.1644(5) 0.5767(4) 0.1758(3)
H47 H 0.14220 0.62870 0.19320
C44 C 0.2316(5) 0.5901(5) 0.1297(3)
H48 H 0.25380 0.65080 0.11440
C45 C 0.2642(4) 0.5166(4) 0.1075(3)
H49 H 0.31260 0.52640 0.07840
C46 C 0.2255(4) 0.4256(5) 0.1279(3)
H50 H 0.24690 0.37280 0.11090
C47 C -0.1289(4) 0.2773(4) 0.1059(3)
H51 H -0.13290 0.31060 0.15020
C48 C -0.2007(4) 0.2669(4) 0.0490(3)
H52 H -0.25140 0.29350 0.05440
C49 C -0.1977(4) 0.2188(4) -0.0136(3)
H53 H -0.24790 0.20910 -0.05330
C50 C -0.1207(4) 0.1828(5) -0.0207(3)
H54 H -0.11740 0.14860 -0.06500
C51 C -0.0484(4) 0.1987(4) 0.0395(2)
C52 C 0.0364(4) 0.1633(4) 0.0366(2)
C53 C 0.0558(5) 0.1214(5) -0.0247(3)
H55 H 0.01420 0.11410 -0.06750
C54 C 0.1356(5) 0.0905(5) -0.0234(3)
H56 H 0.14920 0.06130 -0.06540
C55 C 0.1958(5) 0.1020(5) 0.0391(3)
H57 H 0.25150 0.08130 0.04130
C56 C 0.1720(4) 0.1457(4) 0.1000(3)
H58 H 0.21280 0.15380 0.14330
C57 C -0.1334(3) 0.0774(4) 0.1934(2)
H59 H -0.17230 0.09320 0.16000
C58 C -0.1898(4) -0.0026(4) 0.2206(2)
H60 H -0.26590 -0.04100 0.20550
C59 C -0.1348(4) -0.0250(4) 0.2692(2)
H61 H -0.17210 -0.07830 0.28890
C60 C -0.0251(4) 0.0304(4) 0.2892(2)
H62 H 0.01450 0.01520 0.32260
C61 C 0.0281(3) 0.1090(4) 0.2604(2)
C62 C 0.1472(3) 0.1753(4) 0.2803(2)
C63 C 0.2162(4) 0.1526(4) 0.3211(2)
H63 H 0.18890 0.09390 0.33830
C64 C 0.3266(4) 0.2184(4) 0.3363(2)
H64 H 0.37590 0.20510 0.36390
C65 C 0.3627(4) 0.3024(4) 0.3106(2)
H65 H 0.43740 0.34810 0.32020
C66 C 0.2899(3) 0.3194(4) 0.2710(2)
H66 H 0.31610 0.37820 0.25390
O23 O 0.0266(4) -0.1845(4) 0.3130(2)
H67 H 0.00530 -0.15590 0.35250
H68 H 0.07890 -0.19390 0.33300
O24 O 0.9138(6) 0.2027(8) 0.8076(3)
O25 O 0.2832(6) -0.6625(6) 0.9930(3)
O26 O 0.7667(8) 0.0041(8) 0.8216(5)
O27 O 1.0877(10) 0.3521(11) 0.9248(6)
O28? O 1.0194(9) 0.4823(9) 0.9842(5)
U1A U -0.140213(12) -0.096142(11) 0.473774(7)
U2* U 0.099846(12) 0.820314(12) 0.527136(8)
U2A U -0.099846(12) 0.179686(12) 0.472864(8)
U3A U 0.524335(12) 0.068205(11) 1.090705(7)
U4* U 0.482590(12) 0.201532(12) 0.937967(7)
U4A U 0.517410(12) -0.201532(12) 1.062033(7)
O11* O 0.4917(2) -0.9301(2) 0.84530(13)
O14A O -0.0780(2) -0.3082(2) 0.47394(16)
O15* O 0.2571(2) -0.2115(2) 0.55892(17)
O16* O 0.0999(2) -0.3492(2) 0.51083(18)
O18A O 0.4922(3) -0.7156(2) 1.05189(15)
O21A O -0.0250(2) 0.0723(2) 0.48173(14)
O22A O 0.5162(2) -0.9091(2) 0.98505(13)
O22A* O 0.5162(2) 0.0909(2) 0.98505(13)
#END
