
#######################################################################
#
#                 Cambridge Crystallographic Data Centre
#                                CCDC
#
#######################################################################
#
# If this CIF has been generated from an entry in the Cambridge
# Structural Database, then it will include bibliographic, chemical,
# crystal, experimental, refinement or atomic coordinate data resulting
# from the CCDC's data processing and validation procedures.
#
#######################################################################

data_CSD_CIF_ZOZKEG
_audit_creation_date 2015-03-27
_audit_creation_method CSD-ConQuest-V1
_database_code_CSD ZOZKEG
_database_code_depnum_ccdc_archive 'CCDC 1031801'
_chemical_formula_sum 'C78 H71 Mn4 N3 O36 S5'
_chemical_formula_moiety
;
(C70 H43 Mn4 O31 S5 1-)n,C2 H8 N1 1+,2(C3 H7 N1 O1),3(H2 O1)
;
_journal_coden_Cambridge 9
_journal_volume 54
_journal_year 2015
_journal_page_first 2560
_journal_name_full 'Inorg.Chem. '
loop_
_publ_author_name
"Chongbin Tian"
"Chao"
"He"
"Yunhu Han"
"Qi"
"Wei"
"Qipeng Li"
"Ping Lin"
"Shaowu Du"
_chemical_name_systematic
;
catena-(dimethylammonium tetrakis(\m-4,4'-sulfonyldibenzoato)-(\m-hydrogen 
4,4'-sulfonyldibenzoato)-aqua-tetra-manganese(ii) N,N-dimethylformamide 
solvate trihydrate)
;
_cell_volume  10309.827
_exptl_crystal_colour 'colorless'
_exptl_special_details
;
Magnetic properties

;
_exptl_crystal_description 'Prism'
_diffrn_ambient_temperature 293
_refine_special_details
;
The SQUEEZE/PLATON program has been used to model some disorder.

;
#These two values have been output from a single CSD field.
_refine_ls_R_factor_gt 0.0612
_refine_ls_wR_factor_gt 0.0612
_symmetry_cell_setting monoclinic
_symmetry_space_group_name_H-M 'C c'
_symmetry_Int_Tables_number 9
loop_
_symmetry_equiv_pos_site_id
_symmetry_equiv_pos_as_xyz
1 x,y,z
2 x,-y,1/2+z
3 1/2+x,1/2+y,z
4 1/2+x,1/2-y,1/2+z
_cell_length_a 23.604(8)
_cell_length_b 41.954(12)
_cell_length_c 11.675(4)
_cell_angle_alpha 90
_cell_angle_beta 116.908(4)
_cell_angle_gamma 90
_cell_formula_units_Z 4
loop_
_atom_type_symbol
_atom_type_radius_bond
C 0.68
H 0.23
Mn 1.61
N 0.68
O 0.68
S 1.02
loop_
_atom_site_label
_atom_site_type_symbol
_atom_site_fract_x
_atom_site_fract_y
_atom_site_fract_z
Mn1 Mn 0.82281(6) 0.122883(14) 0.5132(1)
Mn2 Mn 0.91077(4) 0.14929(2) 0.83268(7)
Mn3 Mn 0.82158(5) 0.171620(13) 1.01443(9)
Mn4 Mn 0.73149(5) 0.14606(2) 1.18611(8)
S1 S 1.0080(1) 0.27882(5) 0.3754(2)
S2 S 1.07260(8) -0.04053(4) 0.82010(18)
S3 S 0.57270(7) 0.04146(3) 0.71001(17)
S4 S 0.45295(12) 0.14949(5) 0.3683(2)
S5 S 0.70589(11) 0.35254(4) 1.1299(2)
O1 O 0.8843(3) 0.16315(12) 0.5838(5)
O2 O 0.9728(3) 0.16830(13) 0.7589(5)
O3 O 0.8968(3) 0.09082(12) 0.6144(4)
O4 O 0.9397(3) 0.10152(11) 0.8246(5)
O5 O 0.8054(2) 0.12824(10) 0.6801(4)
O6 O 0.83195(19) 0.13349(8) 0.8851(4)
O7 O 0.7231(2) 0.16946(10) 0.9065(5)
O8 O 0.6660(2) 0.14580(11) 0.9923(4)
O9 O 0.8131(2) 0.20395(11) 1.1473(4)
O10 O 0.7361(3) 0.19512(10) 1.2004(5)
O11 O 1.1194(4) 0.2099(3) -0.0035(10)
O12 O 1.2031(5) 0.2131(3) 0.1747(9)
H1 H 1.21910 0.20400 0.13400
O13 O 0.8386(2) -0.12714(12) 0.8433(4)
O14 O 0.8113(2) -0.13180(9) 0.6382(4)
O15 O 0.7021(3) -0.1003(1) 0.7075(4)
O16 O 0.7543(3) -0.08736(11) 0.9169(4)
O17 O 0.3722(3) 0.30364(11) 0.2963(5)
O18 O 0.3263(2) 0.28765(10) 0.4117(5)
O19 O 0.4758(2) 0.34593(14) 0.5255(4)
O20 O 0.4211(2) 0.33111(10) 0.6309(4)
O21 O 0.9489(3) 0.29129(14) 0.2774(6)
O22 O 1.0528(3) 0.29984(14) 0.4753(6)
O23 O 1.1211(2) -0.04259(12) 0.9493(6)
O24 O 1.0886(2) -0.04584(12) 0.7153(5)
O25 O 0.5576(2) 0.04800(11) 0.8133(6)
O26 O 0.5234(2) 0.04326(12) 0.5788(5)
O27 O 0.4072(3) 0.12713(12) 0.3691(7)
O28 O 0.4771(4) 0.14700(18) 0.2730(6)
O29 O 0.7558(3) 0.37083(15) 1.1101(9)
O30 O 0.6871(4) 0.36214(14) 1.2256(5)
O31 O 0.7434(3) 0.15641(13) 0.4072(5)
C1 C 0.9349(4) 0.17564(14) 0.6362(8)
C2 C 1.1446(8) 0.2150(6) 0.1074(18)
C3 C 0.9359(3) 0.22960(17) 0.3869(7)
H2 H 0.91050 0.23320 0.29980
C4 C 0.9198(3) 0.20678(15) 0.4496(6)
H3 H 0.88260 0.19520 0.40440
C5 C 0.9574(3) 0.20014(13) 0.5797(5)
C6 C 1.0134(3) 0.21665(15) 0.6444(6)
H4 H 1.04070 0.21170 0.72950
C7 C 1.0287(3) 0.24049(18) 0.5822(7)
H5 H 1.06560 0.25230 0.62720
C8 C 0.9900(3) 0.24729(16) 0.4533(6)
C9 C 1.0467(4) 0.2336(3) 0.1172(9)
H6 H 1.02330 0.22480 0.03610
C10 C 1.0173(4) 0.2473(3) 0.1818(10)
H7 H 0.97310 0.24780 0.14390
C11 C 1.0513(3) 0.26030(17) 0.3016(7)
C12 C 1.1151(4) 0.2601(3) 0.3645(9)
H8 H 1.13750 0.26860 0.44660
C13 C 1.1457(4) 0.2464(3) 0.2984(9)
H9 H 1.18980 0.24600 0.33750
C14 C 1.1120(4) 0.2332(2) 0.1748(9)
C15 C 0.8501(3) -0.12185(13) 0.7515(5)
C16 C 0.9333(3) 0.08492(15) 0.7321(6)
C17 C 1.0436(4) 0.01612(15) 0.8998(6)
H10 H 1.07010 0.00930 0.98290
C18 C 1.0120(3) 0.04378(17) 0.8804(6)
H11 H 1.01680 0.05600 0.95070
C19 C 0.9715(3) 0.05463(14) 0.7554(6)
C20 C 0.9980(4) 0.00779(16) 0.6740(7)
H12 H 0.99350 -0.00470 0.60440
C21 C 1.0367(3) -0.00177(15) 0.7982(6)
C22 C 0.9671(5) 0.03548(17) 0.6564(7)
H13 H 0.94130 0.04210 0.57270
C23 C 0.9509(3) -0.09352(17) 0.8909(6)
H14 H 0.94600 -0.09980 0.96240
C24 C 1.0025(3) -0.07495(17) 0.9058(7)
H15 H 1.03240 -0.06840 0.98700
C25 C 1.0083(3) -0.06649(14) 0.7993(6)
C26 C 0.9658(3) -0.07546(14) 0.6767(6)
H16 H 0.97130 -0.06940 0.60580
C27 C 0.9150(3) -0.09376(13) 0.6634(5)
H17 H 0.88570 -0.10020 0.58160
C28 C 0.9058(3) -0.10288(13) 0.7664(5)
C29 C 0.4700(3) 0.33999(14) 0.6248(6)
C30 C 0.7955(3) 0.12293(12) 0.7758(5)
C31 C 0.7135(4) -0.08273(13) 0.8039(6)
C32 C 0.6798(3) 0.07518(13) 0.8464(6)
H18 H 0.67470 0.06880 0.91750
C33 C 0.7324(3) 0.09327(13) 0.8646(6)
H19 H 0.76300 0.09860 0.94680
C34 C 0.7385(3) 0.10337(12) 0.7552(5)
C35 C 0.6923(3) 0.09539(14) 0.6348(6)
H20 H 0.69560 0.10270 0.56290
C36 C 0.6412(3) 0.07677(14) 0.6186(6)
H21 H 0.61090 0.07110 0.53660
C37 C 0.6352(3) 0.06659(12) 0.7261(6)
C38 C 0.6334(4) -0.04420(13) 0.6526(7)
H22 H 0.62780 -0.05730 0.58400
C39 C 0.6001(3) -0.01517(15) 0.6307(6)
H23 H 0.57310 -0.00870 0.54740
C40 C 0.6082(3) 0.00393(13) 0.7355(6)
C41 C 0.6473(3) -0.00578(14) 0.8598(6)
H24 H 0.65190 0.00690 0.92890
C42 C 0.6801(3) -0.03482(14) 0.8815(6)
H25 H 0.70530 -0.04180 0.96500
C43 C 0.6745(3) -0.05310(13) 0.7774(5)
C44 C 0.6724(3) 0.15718(15) 0.9000(7)
C45 C 0.3584(3) 0.28297(14) 0.3535(6)
C46 C 0.4448(4) 0.21296(18) 0.3069(7)
H26 H 0.47560 0.20900 0.27960
C47 C 0.4233(4) 0.24251(16) 0.3059(7)
H27 H 0.44040 0.25930 0.27950
C48 C 0.3759(3) 0.24909(13) 0.3430(6)
C49 C 0.3508(3) 0.22461(16) 0.3840(7)
H28 H 0.31990 0.22860 0.41070
C50 C 0.3729(4) 0.19347(16) 0.3845(7)
H29 H 0.35540 0.17640 0.40840
C51 C 0.4200(4) 0.18850(16) 0.3498(7)
C52 C 0.5628(4) 0.14105(19) 0.7485(8)
H30 H 0.55950 0.13300 0.81950
C53 C 0.5102(4) 0.1382(2) 0.6248(9)
H31 H 0.47250 0.12870 0.61360
C54 C 0.5170(4) 0.15005(16) 0.5236(8)
C55 C 0.5753(4) 0.1644(3) 0.5423(9)
H32 H 0.58100 0.17200 0.47340
C56 C 0.6220(4) 0.1667(2) 0.6650(8)
H33 H 0.65950 0.17700 0.67910
C57 C 0.6170(3) 0.15509(15) 0.7650(7)
C58 C 0.7703(3) 0.21253(15) 1.1740(6)
C59 C 0.5813(4) 0.34254(18) 0.9805(7)
H34 H 0.58000 0.33970 1.05830
C60 C 0.5272(4) 0.33868(17) 0.8669(6)
H35 H 0.48930 0.33300 0.86770
C61 C 0.5290(3) 0.34331(12) 0.7503(6)
C62 C 0.5862(4) 0.3524(2) 0.7532(9)
H36 H 0.58830 0.35640 0.67690
C63 C 0.6394(4) 0.3554(2) 0.8680(9)
H37 H 0.67790 0.36100 0.86940
C64 C 0.6365(3) 0.35045(14) 0.9789(7)
C65 C 0.7300(3) 0.31243(15) 1.1546(7)
C66 C 0.7183(3) 0.25937(16) 1.2178(7)
H38 H 0.70100 0.24550 1.25560
C67 C 0.7034(4) 0.29209(17) 1.2076(8)
H39 H 0.67550 0.29980 1.23720
C68 C 0.7732(4) 0.30122(17) 1.1161(8)
H40 H 0.79210 0.31530 1.08220
C69 C 0.7887(4) 0.26997(17) 1.1266(7)
H41 H 0.81960 0.26290 1.10390
C70 C 0.7582(3) 0.24825(14) 1.1718(6)
N1 N 0.3325(5) 0.1733(5) 0.0017(11)
H42 H 0.35650 0.15980 0.06500
H43 H 0.31090 0.16090 -0.06750
C71 C 0.3756(6) 0.1883(7) -0.0268(12)
H44 H 0.39980 0.17270 -0.04610
H45 H 0.40360 0.20080 0.04550
H46 H 0.35380 0.20190 -0.09980
C72 C 0.2872(6) 0.1830(6) 0.0360(14)
H47 H 0.26690 0.16470 0.05060
H48 H 0.25610 0.19570 -0.03170
H49 H 0.30660 0.19550 0.11320
Mn1A Mn 0.82281(6) -0.122883(14) 1.0132(1)
Mn2C Mn 0.41077(4) 0.35071(2) 0.33268(7)
Mn3A Mn 0.82158(5) -0.171620(13) 0.51443(9)
Mn3C Mn 0.32158(5) 0.328380(13) 0.51443(9)
Mn4A Mn 0.73149(5) -0.14606(2) 0.68611(8)
O13A O 0.8386(2) 0.12714(12) 0.3433(4)
O14A O 0.8113(2) 0.13180(9) 1.1382(4)
O15A O 0.7021(3) 0.1003(1) 1.2075(4)
O16A O 0.7543(3) 0.08736(11) 0.4169(4)
O17C O 0.8722(3) 0.19636(11) 0.7963(5)
O18C O 0.8263(2) 0.21235(10) 0.9117(5)
O19C O 0.9758(2) 0.15407(14) 1.0255(4)
O20C O 0.9211(2) 0.16889(10) 1.1309(4)
#END
