
#######################################################################
#
#                 Cambridge Crystallographic Data Centre
#                                CCDC
#
#######################################################################
#
# If this CIF has been generated from an entry in the Cambridge
# Structural Database, then it will include bibliographic, chemical,
# crystal, experimental, refinement or atomic coordinate data resulting
# from the CCDC's data processing and validation procedures.
#
#######################################################################

data_CSD_CIF_ZOZQOX
_audit_creation_date 2020-01-13
_audit_creation_method CSD-ConQuest-V1
_database_code_CSD ZOZQOX
_database_code_depnum_ccdc_archive 'CCDC 1943117'
_chemical_formula_sum 'C13 H19.5 Cd1 N1.5 O8.5'
_chemical_formula_moiety
;
(C9 H3 Cd1 O6 1-)n,n(C2 H8 N1 1+),0.5n(C4 H9 N1 O1),2n(H2 O1)
;
_journal_coden_Cambridge 1350
_journal_volume 22
_journal_year 2020
_journal_page_first 878
_journal_name_full 'CrystEngComm '
loop_
_publ_author_name
"Ce Wang"
"Zheng Yin"
"Zhao Cheng"
"Wei-Min Ma"
"Xi-Yao Li"
"Xiao-Ting Hu"
"Rong Shi"
"Ao-Wei Chen"
"Yang-Min Ma"
_chemical_name_systematic
;
catena-(dimethylammonium (\m-benzene-1,3,5-tricarboxylato)-cadmium(ii) 
dimethylacetamide solvate dihydrate)
;
_cell_volume   3476.614
_exptl_crystal_colour 'colorless'
_exptl_crystal_description 'block'
_diffrn_ambient_temperature 293
_refine_special_details
;
The SQUEEZE/PLATON program was used to model the disordered solvent 
;
#These two values have been output from a single CSD field.
_refine_ls_R_factor_gt 0.041
_refine_ls_wR_factor_gt 0.041
_symmetry_cell_setting orthorhombic
_symmetry_space_group_name_H-M 'P b c n'
_symmetry_Int_Tables_number 60
loop_
_symmetry_equiv_pos_site_id
_symmetry_equiv_pos_as_xyz
1 x,y,z
2 1/2-x,1/2-y,1/2+z
3 -x,y,1/2-z
4 1/2+x,1/2-y,-z
5 -x,-y,-z
6 -1/2+x,-1/2+y,-1/2-z
7 x,-y,-1/2+z
8 -1/2-x,-1/2+y,z
_cell_length_a 12.5634(3)
_cell_length_b 16.1618(3)
_cell_length_c 17.1222(3)
_cell_angle_alpha 90
_cell_angle_beta 90
_cell_angle_gamma 90
_cell_formula_units_Z 8
loop_
_atom_type_symbol
_atom_type_radius_bond
C 0.68
H 0.23
Cd 1.44
N 0.68
O 0.68
loop_
_atom_site_label
_atom_site_type_symbol
_atom_site_fract_x
_atom_site_fract_y
_atom_site_fract_z
Cd1 Cd 0.94074(2) 0.14297(2) 0.83375(2)
O1 O 0.9247(2) 0.23116(18) 0.63979(17)
O2 O 0.5463(2) 0.41212(19) 0.46383(16)
O3 O 0.5981(2) 0.57480(16) 0.71109(16)
O4 O 0.8705(2) 0.24891(16) 0.76501(15)
O5 O 0.6446(3) 0.5051(2) 0.81636(17)
O6 O 0.6756(3) 0.3258(2) 0.43371(16)
C1 C 0.7442(3) 0.3829(2) 0.7176(2)
H1 H 0.76640 0.38340 0.76940
C2 C 0.7846(4) 0.3237(2) 0.6659(2)
C3 C 0.6273(3) 0.3718(2) 0.4823(2)
C4 C 0.8667(3) 0.2626(2) 0.6930(2)
C5 C 0.6700(3) 0.4417(2) 0.6912(2)
C6 C 0.6349(3) 0.5103(2) 0.7433(2)
C7 C 0.6324(3) 0.4386(2) 0.6148(2)
H2 H 0.58230 0.47690 0.59770
C8 C 0.7475(4) 0.3218(2) 0.5890(2)
H3 H 0.77480 0.28290 0.55430
C9 C 0.6704(3) 0.3772(2) 0.5637(2)
N1 N 0.6321(5) 0.3951(3) 0.9396(3)
C10 C 0.7208(7) 0.3967(4) 0.9948(5)
H4 H 0.73130 0.45230 1.01310
H5 H 0.70490 0.36130 1.03830
H6 H 0.78420 0.37770 0.96930
C11 C 0.6131(8) 0.3117(5) 0.9102(5)
H7 H 0.55460 0.31260 0.87420
H8 H 0.67570 0.29200 0.88410
H9 H 0.59640 0.27560 0.95310
Cd1A Cd 0.55926(2) 0.35703(2) 0.33375(2)
Cd1B Cd 1.05926(2) 0.14297(2) 0.66625(2)
Cd1E Cd 0.44074(2) 0.64297(2) 0.66625(2)
Cd1G Cd 0.55926(2) 0.64297(2) 0.83375(2)
O1B O 1.0753(2) 0.23116(18) 0.86021(17)
O2A O 0.9537(2) 0.08788(19) 0.96383(16)
O3E O 1.0981(2) 0.07480(16) 0.78891(16)
O3G O 0.9019(2) 0.07480(16) 0.71109(16)
O5G O 0.8554(3) 0.0051(2) 0.81636(17)
O6A O 0.8244(3) 0.1742(2) 0.93371(16)
#END
