
#######################################################################
#
#                 Cambridge Crystallographic Data Centre
#                                CCDC
#
#######################################################################
#
# If this CIF has been generated from an entry in the Cambridge
# Structural Database, then it will include bibliographic, chemical,
# crystal, experimental, refinement or atomic coordinate data resulting
# from the CCDC's data processing and validation procedures.
#
#######################################################################

data_CSD_CIF_ZOZQUD
_audit_creation_date 2020-01-13
_audit_creation_method CSD-ConQuest-V1
_database_code_CSD ZOZQUD
_database_code_depnum_ccdc_archive 'CCDC 1943118'
_chemical_formula_sum 'C43 H68 Cd5 N6 O28'
_chemical_formula_moiety
;
(C27 H24 Cd5 O24 2-)n,2n(C2 H8 N1 1+),4n(C3 H7 N1 O1)
;
_journal_coden_Cambridge 1350
_journal_volume 22
_journal_year 2020
_journal_page_first 878
_journal_name_full 'CrystEngComm '
loop_
_publ_author_name
"Ce Wang"
"Zheng Yin"
"Zhao Cheng"
"Wei-Min Ma"
"Xi-Yao Li"
"Xiao-Ting Hu"
"Rong Shi"
"Ao-Wei Chen"
"Yang-Min Ma"
_chemical_name_systematic
;
catena-(bis(dimethylammonium) 
bis(\m-benzene-1,3,5-tricarboxylato)-tris(\m-2-oxypropanoato)-triaqua-penta-ca
dmium(ii) dimethylformamide solvate)
;
_cell_volume   4707.597
_diffrn_ambient_temperature 293
#These two values have been output from a single CSD field.
_refine_ls_R_factor_gt 0.2531
_refine_ls_wR_factor_gt 0.2531
_symmetry_cell_setting monoclinic
_symmetry_space_group_name_H-M 'P 21/c'
_symmetry_Int_Tables_number 14
loop_
_symmetry_equiv_pos_site_id
_symmetry_equiv_pos_as_xyz
1 x,y,z
2 -x,1/2+y,1/2-z
3 -x,-y,-z
4 x,-1/2-y,-1/2+z
_cell_length_a 20.1064(5)
_cell_length_b 14.0180(4)
_cell_length_c 18.9293(5)
_cell_angle_alpha 90
_cell_angle_beta 118.072(2)
_cell_angle_gamma 90
_cell_formula_units_Z 4
loop_
_atom_type_symbol
_atom_type_radius_bond
C 0.68
H 0.23
Cd 1.44
O 0.68
loop_
_atom_site_label
_atom_site_type_symbol
_atom_site_fract_x
_atom_site_fract_y
_atom_site_fract_z
Cd1 Cd 0.17254(7) -0.76446(11) 0.55929(9)
Cd2 Cd -0.00809(8) -0.89248(11) 0.44446(8)
Cd3 Cd 0.49160(17) -0.8909(3) 0.54519(18)
Cd4 Cd 0.67245(7) -0.75379(17) 1.11415(9)
Cd5 Cd 0.49112(15) -0.6054(2) 0.54958(16)
O1 O 0.3022(8) -0.7491(18) 0.5806(10)
O2 O 0.2801(7) -0.7508(17) 0.6805(8)
O3 O 0.3728(19) -0.630(3) 0.509(2)
O4 O 0.4799(17) -0.789(2) 0.9533(18)
O5 O 0.6040(13) -0.7379(18) 0.9787(14)
O6 O 0.502(3) -0.524(4) 0.663(3)
O7 O 0.6558(8) -0.736(2) 0.7388(11)
O8 O 0.5609(18) -0.748(3) 0.621(2)
O9 O 0.1047(8) -0.7778(18) 0.6278(10)
O10 O -0.0130(8) -0.7949(15) 0.5343(8)
O11 O 0.1568(8) -0.7667(17) 0.9134(8)
O12 O 0.0638(8) -0.7226(12) 0.9360(9)
O13 O -0.2203(7) -0.7611(14) 0.5986(8)
O14 O -0.1970(7) -0.7344(12) 0.7214(7)
O15 O -0.0787(3) -1.0127(6) 0.4598(3)
O16 O -0.1906(3) -1.0744(5) 0.4300(3)
O17 O -0.1367(4) -0.8697(8) 0.3566(5)
O18 O 0.4297(3) -1.0213(9) 0.4690(3)
O19 O 0.3191(4) -1.0813(5) 0.3849(3)
O20 O 0.3662(14) -0.8735(9) 0.5078(5)
O21 O 0.1554(15) -0.597(2) 0.5576(16)
O22 O 0.0006(13) -0.9707(16) 0.3442(12)
C1 C 0.3237(9) -0.7415(13) 0.6532(10)
C2 C 0.5100(4) -0.7470(7) 0.8444(4)
C3 C 0.4331(4) -0.7479(10) 0.7919(5)
H1 H 0.39870 -0.75150 0.81180
C4 C 0.4075(4) -0.7433(11) 0.7098(5)
C5 C 0.4588(6) -0.7379(9) 0.6802(5)
H2 H 0.44170 -0.73490 0.62520
C6 C 0.5358(6) -0.7371(11) 0.7326(6)
C7 C 0.5613(4) -0.7416(10) 0.8147(6)
H3 H 0.61280 -0.74110 0.84980
C8 C 0.5406(13) -0.774(2) 0.9384(14)
C9 C 0.5906(10) -0.7391(15) 0.6995(10)
C10 C 0.0388(10) -0.7841(17) 0.6052(11)
C11 C 0.0609(4) -0.7654(6) 0.7468(4)
H4 H 0.11220 -0.76930 0.76280
C12 C 0.0361(5) -0.7539(8) 0.8036(4)
C13 C -0.0406(5) -0.7480(9) 0.7796(6)
H5 H -0.05710 -0.74040 0.81760
C14 C -0.0925(4) -0.7536(10) 0.6988(7)
C15 C -0.0678(4) -0.7650(11) 0.6420(5)
H6 H -0.10260 -0.76870 0.58800
C16 C 0.0089(5) -0.7709(9) 0.6660(4)
C17 C -0.1755(9) -0.7565(14) 0.6732(12)
C18 C 0.0915(12) -0.7448(18) 0.8900(14)
C19 C -0.1516(2) -1.0056(3) 0.42238(12)
C20 C -0.1875(3) -0.9219(4) 0.3735(3)
H7 H -0.22670 -0.94590 0.32200
C21 C -0.2266(5) -0.8737(12) 0.4115(5)
H8 H -0.19080 -0.83930 0.45760
H9 H -0.25190 -0.92010 0.42770
H10 H -0.26290 -0.83000 0.37420
C22 C 0.35716(17) -1.0101(3) 0.42893(11)
C23 C 0.3229(4) -0.9212(4) 0.4349(3)
C24 C 0.291(2) -0.8701(9) 0.3591(5)
H11 H 0.23670 -0.87420 0.33410
H12 H 0.30830 -0.89810 0.32470
H13 H 0.30580 -0.80440 0.36860
O23 O 0.4201(15) -0.488(2) 0.4603(16)
C25 C 0.3476(14) -0.487(2) 0.4199(16)
C26 C 0.318(3) -0.570(4) 0.441(3)
H14 H 0.27720 -0.54920 0.45240
C27 C 0.281(4) -0.640(5) 0.360(4)
H15 H 0.32130 -0.66640 0.35200
H16 H 0.24820 -0.60350 0.31390
H17 H 0.25340 -0.69090 0.36790
O24 O 0.3077(14) -0.431(2) 0.3823(15)
Cd1B Cd -0.17254(7) -1.23554(11) 0.44071(9)
Cd1C Cd 0.17254(7) -0.73554(11) 1.05929(9)
Cd2B Cd 0.00809(8) -1.10752(11) 0.55554(8)
Cd2C Cd -0.00809(8) -0.60752(11) 0.94446(8)
Cd3B Cd 0.50840(17) -1.1091(3) 0.45481(18)
Cd4A Cd 0.32755(7) -1.25379(17) 0.38585(9)
Cd4A* Cd 0.32755(7) -0.25379(17) 0.38585(9)
Cd4C Cd -0.32755(7) -0.74621(17) 0.61415(9)
Cd4C* Cd 0.67245(7) -0.74621(17) 0.61415(9)
Cd5B Cd 0.50888(15) -0.3946(2) 0.45042(16)
Cd5C Cd 0.49112(15) -0.8946(2) 1.04958(16)
O4C O 0.4799(17) -0.711(2) 0.4533(18)
O7C O 0.6558(8) -0.764(2) 1.2388(11)
O8C O 0.5609(18) -0.752(3) 1.121(2)
O11C O 0.1568(8) -0.7333(17) 0.4134(8)
O12C O 0.0638(8) -0.7774(12) 0.4360(9)
O13C O 0.7797(7) -0.7389(14) 1.0986(8)
O14C O 0.8030(7) -0.7656(12) 1.2214(7)
O15B O 0.0787(3) -0.9873(6) 0.5402(3)
O16B O 0.1906(3) -0.9256(5) 0.5700(3)
O18B O 0.5703(3) -0.9787(9) 0.5310(3)
O19A O 0.6809(4) -0.5813(5) 1.1151(3)
O23B O 0.5799(15) -0.512(2) 0.5397(16)
O24A O 0.6923(14) -0.931(2) 1.1177(15)
#END
