
#######################################################################
#
#                 Cambridge Crystallographic Data Centre
#                                CCDC
#
#######################################################################
#
# If this CIF has been generated from an entry in the Cambridge
# Structural Database, then it will include bibliographic, chemical,
# crystal, experimental, refinement or atomic coordinate data resulting
# from the CCDC's data processing and validation procedures.
#
#######################################################################

data_CSD_CIF_ZOZROY
_audit_creation_date 2020-01-13
_audit_creation_method CSD-ConQuest-V1
_database_code_CSD ZOZROY
_database_code_depnum_ccdc_archive 'CCDC 1943112'
_chemical_formula_sum 'C15 H20 Mn1 N2 O7'
_chemical_formula_moiety
;
(C9 H3 Mn1 O6 1-)n,n(C4 H9 N1 O1),n(C2 H8 N1 1+)
;
_journal_coden_Cambridge 1350
_journal_volume 22
_journal_year 2020
_journal_page_first 878
_journal_name_full 'CrystEngComm '
loop_
_publ_author_name
"Ce Wang"
"Zheng Yin"
"Zhao Cheng"
"Wei-Min Ma"
"Xi-Yao Li"
"Xiao-Ting Hu"
"Rong Shi"
"Ao-Wei Chen"
"Yang-Min Ma"
_chemical_name_systematic
;
catena-(diemthylammonium (\m-benzene-1,3,5-tricarboxylato)-manganese(ii) 
dimethylacetamide unknown solvate)
;
_cell_volume   1765.205
_exptl_crystal_colour 'colorless'
_exptl_crystal_density_diffrn 1.487
_exptl_crystal_description 'block'
_diffrn_ambient_temperature 293
_refine_special_details
;
The SQUEEZE/PLATON program was used to model some disorder.

;
#These two values have been output from a single CSD field.
_refine_ls_R_factor_gt 0.0766
_refine_ls_wR_factor_gt 0.0766
_symmetry_cell_setting monoclinic
_symmetry_space_group_name_H-M 'P 21/n'
_symmetry_Int_Tables_number 14
loop_
_symmetry_equiv_pos_site_id
_symmetry_equiv_pos_as_xyz
1 x,y,z
2 1/2-x,1/2+y,1/2-z
3 -x,-y,-z
4 -1/2+x,-1/2-y,-1/2+z
_cell_length_a 9.4648(3)
_cell_length_b 16.2782(6)
_cell_length_c 11.5458(4)
_cell_angle_alpha 90
_cell_angle_beta 97.104(2)
_cell_angle_gamma 90
_cell_formula_units_Z 4
loop_
_atom_type_symbol
_atom_type_radius_bond
C 0.68
H 0.23
Mn 1.61
N 0.68
O 0.68
loop_
_atom_site_label
_atom_site_type_symbol
_atom_site_fract_x
_atom_site_fract_y
_atom_site_fract_z
Mn1 Mn 0.63605(5) 0.42036(3) -0.04727(5)
O1 O 0.5809(5) 0.3326(3) 0.0498(4)
O2 O 0.8093(6) 0.3069(4) 0.0934(6)
O3 O 0.9572(4) 0.0672(3) 0.3469(3)
O4 O 0.8023(4) 0.0201(3) 0.4598(4)
C1 C 0.6465(6) 0.2242(4) 0.1816(5)
C2 C 0.7522(5) 0.1741(3) 0.2365(5)
H1 H 0.84570 0.18080 0.22100
C3 C 0.7204(5) 0.1138(3) 0.3144(5)
C4 C 0.5802(5) 0.1050(3) 0.3368(5)
H2 H 0.55790 0.06470 0.38870
C5 C 0.4730(5) 0.1551(3) 0.2832(5)
C6 C 0.5070(6) 0.2146(3) 0.2051(5)
H3 H 0.43580 0.24820 0.16810
C7 C 0.6848(6) 0.2919(4) 0.1020(6)
C8 C 0.8354(5) 0.0629(3) 0.3781(4)
C9 C 0.3241(5) 0.1479(3) 0.3129(5)
O5 O 0.2375(5) 0.2028(3) 0.2875(5)
O6 O 0.2962(4) 0.0813(2) 0.3642(4)
N1 N 0.3762(13) 0.5968(6) 0.5190(9)
C10 C 0.3653(19) 0.5751(8) 0.643(1)
H4 H 0.45910 0.56820 0.68410
H5 H 0.31270 0.52490 0.64600
H6 H 0.31710 0.61840 0.67880
C11 C 0.4374(17) 0.6771(7) 0.5011(12)
H7 H 0.36720 0.71890 0.50750
H8 H 0.46800 0.67930 0.42490
H9 H 0.51760 0.68620 0.55920
C12 C 0.3379(12) 0.5427(6) 0.4290(9)
O7 O 0.2900(13) 0.4746(5) 0.4455(8)
C13 C 0.3519(19) 0.5669(8) 0.3029(9)
H10 H 0.33860 0.62510 0.29380
H11 H 0.28110 0.53860 0.25110
H12 H 0.44500 0.55230 0.28480
C14 C 0.3603(19) -0.1138(8) 0.3186(16)
H13 H 0.40710 -0.06140 0.32680
H14 H 0.41050 -0.15240 0.37140
H15 H 0.26430 -0.10820 0.33620
C15 C 0.4782(17) -0.1364(11) 0.1492(19)
H16 H 0.47610 -0.17850 0.09080
H17 H 0.56090 -0.14350 0.20540
H18 H 0.48160 -0.08350 0.11300
N2 N 0.3589(19) -0.1418(7) 0.2038(12)
H19 H 0.33330 -0.19440 0.20280
H20 H 0.29010 -0.11480 0.16000
Mn1A Mn 0.86395(5) -0.07964(3) 0.54727(5)
Mn1C Mn 0.13605(5) 0.07964(3) 0.45273(5)
Mn1C* Mn 1.13605(5) 0.07964(3) 0.45273(5)
O3C O 0.4572(4) 0.4328(3) -0.1531(3)
O4A O 0.6977(4) 0.5201(3) 0.0402(4)
O6C O 0.7962(4) 0.4187(2) -0.1358(4)
#END
