
#######################################################################
#
#                 Cambridge Crystallographic Data Centre
#                                CCDC
#
#######################################################################
#
# If this CIF has been generated from an entry in the Cambridge
# Structural Database, then it will include bibliographic, chemical,
# crystal, experimental, refinement or atomic coordinate data resulting
# from the CCDC's data processing and validation procedures.
#
#######################################################################

data_CSD_CIF_ZOZSAL
_audit_creation_date 2020-01-13
_audit_creation_method CSD-ConQuest-V1
_database_code_CSD ZOZSAL
_database_code_depnum_ccdc_archive 'CCDC 1943098'
_chemical_formula_sum 'C70 H95.5 N9.5 O31.5 Zn5'
_chemical_formula_moiety
;
(C44 H30 N2 O26 Zn5 2-)n,2n(C2 H8 N1 1+),5.5n(C4 H9 N1 O1)
;
_journal_coden_Cambridge 1350
_journal_volume 22
_journal_year 2020
_journal_page_first 878
_journal_name_full 'CrystEngComm '
loop_
_publ_author_name
"Ce Wang"
"Zheng Yin"
"Zhao Cheng"
"Wei-Min Ma"
"Xi-Yao Li"
"Xiao-Ting Hu"
"Rong Shi"
"Ao-Wei Chen"
"Yang-Min Ma"
_chemical_name_systematic
;
catena-(bis(dimethylammonium) 
tetrakis(\m-benzene-1,3,5-tricarboxylato)-bis(dimethylacetamide)-penta-zinc 
dimethylacetamide solvate)
;
_cell_volume  14601.282
_exptl_crystal_colour 'colorless'
_exptl_crystal_description 'block'
_diffrn_ambient_temperature 293
_refine_special_details
;
The SQUEEZE/PLATON program was used to model the disordered solvent 
;
#These two values have been output from a single CSD field.
_refine_ls_R_factor_gt 0.1335
_refine_ls_wR_factor_gt 0.1335
_symmetry_cell_setting monoclinic
_symmetry_space_group_name_H-M 'C 2/c'
_symmetry_Int_Tables_number 15
loop_
_symmetry_equiv_pos_site_id
_symmetry_equiv_pos_as_xyz
1 x,y,z
2 -x,y,1/2-z
3 1/2+x,1/2+y,z
4 1/2-x,1/2+y,1/2-z
5 -x,-y,-z
6 x,-y,-1/2+z
7 -1/2-x,-1/2-y,-z
8 -1/2+x,-1/2-y,-1/2+z
_cell_length_a 30.2857(13)
_cell_length_b 16.9980(7)
_cell_length_c 28.4898(12)
_cell_angle_alpha 90
_cell_angle_beta 95.403(2)
_cell_angle_gamma 90
_cell_formula_units_Z 8
loop_
_atom_type_symbol
_atom_type_radius_bond
C 0.68
H 0.23
N 0.68
O 0.68
Zn 1.22
loop_
_atom_site_label
_atom_site_type_symbol
_atom_site_fract_x
_atom_site_fract_y
_atom_site_fract_z
Zn1 Zn 0.32428(5) 0.68323(8) 0.73077(6)
Zn2 Zn 0.35866(5) 0.86491(9) 0.69438(5)
Zn3 Zn 0.52112(5) 0.35971(8) 0.59206(5)
Zn4 Zn 0.43025(5) 0.82485(9) 0.41941(6)
Zn5 Zn 0.27399(5) 0.67466(8) 0.99150(5)
O1 O 0.3638(5) 0.6740(8) 0.6811(4)
O2 O 0.3762(4) 0.7934(7) 0.6489(4)
O3 O 0.4977(4) 0.4644(5) 0.5804(4)
O4 O 0.4698(6) 0.4593(8) 0.6480(4)
O5 O 0.4241(4) 0.7678(7) 0.4811(4)
O6 O 0.4485(6) 0.652(1) 0.4633(6)
O7 O 0.3817(3) 0.8529(7) 0.7600(3)
O8 O 0.3425(4) 0.7530(6) 0.7849(4)
O9 O 0.2959(4) 0.7575(8) 0.9479(5)
O10 O 0.2627(4) 0.8730(8) 0.9604(4)
O11 O 0.3780(6) 1.0909(8) 0.9315(6)
O12 O 0.4156(5) 1.0759(8) 0.8713(7)
O13 O 0.5658(4) 0.3503(7) 0.6429(4)
O14 O 0.6092(3) 0.2485(6) 0.6233(4)
O15 O 0.6306(5) 0.5754(7) 0.7243(6)
O16 O 0.7005(4) 0.5789(6) 0.7531(5)
O17 O 0.7952(3) 0.3588(6) 0.7070(5)
O18 O 0.7680(3) 0.2381(5) 0.7063(4)
O19 O 0.4721(4) 0.2885(7) 0.5875(6)
O20 O 0.5106(3) 0.1842(7) 0.6086(5)
O21 O 0.4233(5) -0.0392(8) 0.6748(6)
O22 O 0.3522(4) -0.0367(6) 0.6607(5)
O23 O 0.2795(3) 0.1575(7) 0.5557(4)
O24 O 0.3134(4) 0.2718(6) 0.5439(4)
O25 O 0.4774(7) 0.8950(14) 0.4717(8)
O26 O 0.3170(4) 0.5922(8) 0.9790(5)
N1 N 0.5093(9) 0.8919(18) 0.5459(8)
N2 N 0.3803(6) 0.5824(19) 0.9449(8)
C1 C 0.4051(5) 0.6777(9) 0.6159(5)
C2 C 0.4095(5) 0.7110(7) 0.5729(5)
H1 H 0.39630 0.75920 0.56490
C3 C 0.4340(5) 0.6715(8) 0.5413(5)
C4 C 0.4554(5) 0.6012(8) 0.5535(5)
H2 H 0.47150 0.57570 0.53180
C5 C 0.4529(5) 0.5684(8) 0.5983(5)
C6 C 0.4275(5) 0.6072(9) 0.6290(5)
H3 H 0.42530 0.58640 0.65890
C7 C 0.3796(5) 0.7156(9) 0.6526(5)
C8 C 0.4370(6) 0.7016(9) 0.4929(6)
C9 C 0.4753(5) 0.4914(8) 0.6110(5)
C10 C 0.3209(5) 0.8672(9) 0.9084(5)
C11 C 0.3379(5) 0.9424(9) 0.9157(5)
H4 H 0.33050 0.97140 0.94150
C12 C 0.3654(5) 0.9743(8) 0.8858(5)
C13 C 0.3739(5) 0.9342(8) 0.8450(5)
H5 H 0.39180 0.95680 0.82390
C14 C 0.3556(5) 0.8607(8) 0.8359(4)
C15 C 0.3288(5) 0.8276(8) 0.8671(5)
H6 H 0.31600 0.77860 0.86060
C16 C 0.2915(5) 0.8281(9) 0.9417(5)
C17 C 0.3879(6) 1.0526(9) 0.8966(6)
C18 C 0.3599(5) 0.8191(9) 0.7896(5)
C19 C 0.6415(5) 0.3479(7) 0.6727(5)
C20 C 0.6374(5) 0.4247(8) 0.6908(5)
H7 H 0.61000 0.44980 0.68680
C21 C 0.6724(5) 0.4627(8) 0.7140(5)
C22 C 0.7144(5) 0.4258(7) 0.7190(5)
H8 H 0.73900 0.45240 0.73330
C23 C 0.7190(5) 0.3478(7) 0.7022(5)
C24 C 0.6826(4) 0.3104(7) 0.6788(5)
H9 H 0.68560 0.25990 0.66710
C25 C 0.6028(5) 0.3115(7) 0.6444(5)
C26 C 0.6668(5) 0.5454(8) 0.7325(5)
C27 C 0.7638(5) 0.3120(8) 0.7063(6)
C28 C 0.4325(5) 0.1763(8) 0.6042(6)
C29 C 0.4313(5) 0.1052(8) 0.6270(5)
H10 H 0.45780 0.08290 0.63980
C30 C 0.3922(4) 0.0659(8) 0.6315(5)
C31 C 0.3538(5) 0.0992(8) 0.6102(5)
H11 H 0.32680 0.07370 0.61230
C32 C 0.3545(5) 0.1700(9) 0.5856(5)
C33 C 0.3935(5) 0.2086(8) 0.5836(6)
H12 H 0.39400 0.25700 0.56840
C34 C 0.4756(5) 0.218(1) 0.5993(6)
C35 C 0.3900(6) -0.0077(9) 0.6588(6)
C36 C 0.3119(5) 0.2023(9) 0.5604(5)
C37 C 0.4743(8) 0.9081(18) 0.5131(8)
C38 C 0.5033(15) 0.901(3) 0.5957(8)
H13 H 0.53030 0.88800 0.61430
H14 H 0.49560 0.95500 0.60170
H15 H 0.47990 0.86730 0.60390
C39 C 0.5453(11) 0.843(3) 0.5325(12)
H16 H 0.56710 0.83670 0.55890
H17 H 0.53380 0.79200 0.52280
H18 H 0.55860 0.86700 0.50680
C40 C 0.3351(6) 0.585(2) 0.9430(6)
C41 C 0.4064(6) 0.582(3) 0.9904(10)
H19 H 0.43740 0.58010 0.98580
H20 H 0.40050 0.62960 1.00720
H21 H 0.39860 0.53740 1.00830
C42 C 0.4024(11) 0.583(3) 0.9018(11)
H22 H 0.43390 0.58030 0.90960
H23 H 0.39290 0.53790 0.88300
H24 H 0.39500 0.63000 0.88450
C43 C 0.3160(15) 0.592(3) 0.8905(16)
H25 H 0.28640 0.61300 0.88890
H26 H 0.31560 0.54150 0.87590
H27 H 0.33430 0.62730 0.87420
C44 C 0.4361(14) 0.946(3) 0.5320(16)
H28 H 0.42900 0.99390 0.51490
H29 H 0.44330 0.95810 0.56470
H30 H 0.41100 0.91130 0.52850
N3 N 0.3326(14) 0.205(2) 0.7128(13)
H31 H 0.33080 0.20630 0.74380
H32 H 0.34490 0.15920 0.70620
C45 C 0.3623(14) 0.267(3) 0.701(2)
H33 H 0.39080 0.26040 0.71830
H34 H 0.36560 0.26580 0.66770
H35 H 0.35020 0.31740 0.70870
C46 C 0.2877(13) 0.207(3) 0.6894(19)
H36 H 0.27120 0.16280 0.69990
H37 H 0.27340 0.25480 0.69690
H38 H 0.28880 0.20320 0.65590
Zn1A Zn 0.67572(5) 0.68323(8) 0.76923(6)
Zn1B Zn 0.82428(5) 0.18323(8) 0.73077(6)
Zn2* Zn 0.35866(5) -0.13509(9) 0.69438(5)
Zn2B Zn 0.85866(5) 0.36491(9) 0.69438(5)
Zn3D Zn 0.47888(5) 0.64029(8) 0.40794(5)
Zn4D Zn 0.56975(5) 0.17515(9) 0.58059(6)
Zn4E Zn 0.43025(5) 1.17515(9) 0.91941(6)
Zn5C Zn 0.22601(5) 0.17466(8) 0.50850(5)
Zn5E Zn 0.27399(5) 0.32534(8) 0.49150(5)
Zn5F Zn 0.22601(5) 0.82534(8) 1.00850(5)
O6D O 0.5515(6) 0.348(1) 0.5367(6)
O10F O 0.2373(4) 0.6270(8) 1.0396(4)
O11E O 0.3780(6) 0.9091(8) 0.4315(6)
O12E O 0.4156(5) 0.9241(8) 0.3713(7)
O14D O 0.3908(3) 0.7515(6) 0.3767(4)
O15A O 0.3694(5) 0.5754(7) 0.7757(6)
O16A O 0.2995(4) 0.5789(6) 0.7469(5)
O17B O 0.2952(3) 0.8588(6) 0.7070(5)
O18B O 0.2680(3) 0.7381(5) 0.7063(4)
O20D O 0.4894(3) 0.8158(7) 0.3914(5)
O22* O 0.3522(4) 0.9633(6) 0.6607(5)
O23C O 0.2205(3) 0.6575(7) 0.9443(4)
O24E O 0.3134(4) 0.7282(6) 1.0439(4)
#END
