
#######################################################################
#
#                 Cambridge Crystallographic Data Centre
#                                CCDC
#
#######################################################################
#
# If this CIF has been generated from an entry in the Cambridge
# Structural Database, then it will include bibliographic, chemical,
# crystal, experimental, refinement or atomic coordinate data resulting
# from the CCDC's data processing and validation procedures.
#
#######################################################################

data_CSD_CIF_ZOZVER
_audit_creation_date 2015-03-30
_audit_creation_method CSD-ConQuest-V1
_database_code_CSD ZOZVER
_database_code_depnum_ccdc_archive 'CCDC 999343'
_chemical_formula_sum 'C80 H82 Mg6 N6 O34'
_chemical_formula_moiety
;
(C70 H48 Mg6 N2 O30 2-)n,2n(C3 H7 N1 O1),2n(C2 H8 N1 1+),2n(H2 O1)
;
_journal_coden_Cambridge 208
_journal_volume 223
_journal_year 2015
_journal_page_first 59
_journal_name_full 'J.Solid State Chem. '
loop_
_publ_author_name
"Zhao-Feng Wu"
"Bin Tan"
"Mei-Ling Feng"
"Cheng-Feng Du"
"Xiao-Ying Huang"
_chemical_name_systematic
;
catena-[bis(dimethylammonium) 
tetrakis(\m-formato)-pentakis(\m-naphthalene-1,4-dicarboxylato)-bis(N,N-dimeth
ylformamide)-hexa-magnesium N,N-dimethylformamide solvate dihydrate]
;
_cell_volume   4261.701
_exptl_crystal_colour 'colorless'
_exptl_crystal_density_diffrn 1.416
_exptl_crystal_description 'block'
_diffrn_ambient_temperature 100
_refine_special_details
;
The structure is disordered; The paper describes coordination of 1.5 
N,N-dimethylformamide and 0.5 aqua ligands, with 2.5 N,N-dimethylformamide 
and 1.5 water as free molecules.
;
#These two values have been output from a single CSD field.
_refine_ls_R_factor_gt 0.0541
_refine_ls_wR_factor_gt 0.0541
_symmetry_cell_setting monoclinic
_symmetry_space_group_name_H-M 'P 21/c'
_symmetry_Int_Tables_number 14
loop_
_symmetry_equiv_pos_site_id
_symmetry_equiv_pos_as_xyz
1 x,y,z
2 -x,1/2+y,1/2-z
3 -x,-y,-z
4 x,-1/2-y,-1/2+z
_cell_length_a 11.3718(2)
_cell_length_b 22.5945(3)
_cell_length_c 16.5955(3)
_cell_angle_alpha 90
_cell_angle_beta 91.902(2)
_cell_angle_gamma 90
_cell_formula_units_Z 2
loop_
_atom_type_symbol
_atom_type_radius_bond
C 0.68
H 0.23
Mg 1.41
N 0.68
O 0.68
loop_
_atom_site_label
_atom_site_type_symbol
_atom_site_fract_x
_atom_site_fract_y
_atom_site_fract_z
Mg1 Mg 0.03806(6) 0.25065(3) 0.46862(4)
Mg2 Mg 0.14043(6) 0.17308(3) 0.64578(4)
Mg3 Mg -0.08342(6) 0.19180(3) 0.78681(4)
O1 O 0.21571(13) 0.26713(7) 0.48299(10)
O2 O 0.27789(14) 0.20891(7) 0.58506(9)
O3 O 0.77863(14) 0.26800(7) 0.33741(9)
O4 O 0.85601(14) 0.23745(7) 0.45577(9)
O5 O 0.11471(14) 0.11173(7) 0.55719(9)
O6 O 0.06945(15) 0.16445(7) 0.44721(9)
O7 O 0.18455(14) -0.12725(7) 0.28621(9)
O8 O -0.00770(14) -0.13338(7) 0.28926(9)
O9 O 0.01431(14) 0.33910(7) 0.48467(9)
O10 O -0.07932(15) 0.37251(7) 0.37309(9)
O11 O 0.05557(13) 0.23412(7) 0.84289(9)
O12 O 0.17601(14) 0.23182(7) 0.73918(9)
O13 O 0.01948(13) 0.23435(6) 0.59316(9)
O14 O -0.09541(14) 0.25386(7) 0.69733(9)
C1 C 0.29215(19) 0.23795(10) 0.52176(13)
C2 C 0.41552(19) 0.23915(10) 0.49018(13)
C3 C 0.4700(2) 0.29233(11) 0.47977(17)
H1 H 0.42810 0.32680 0.48910
C4 C 0.5869(2) 0.29516(11) 0.45419(18)
H2 H 0.62080 0.33190 0.44590
C5 C 0.64804(19) 0.2442(1) 0.43870(13)
C6 C 0.5935(2) 0.18808(10) 0.44737(14)
C7 C 0.6521(2) 0.13412(12) 0.42929(18)
H3 H 0.73100 0.13530 0.41230
C8 C 0.5967(3) 0.08101(14) 0.4360(2)
H4 H 0.63740 0.04560 0.42370
C9 C 0.4794(3) 0.07813(14) 0.4611(3)
H5 H 0.44130 0.04090 0.46500
C10 C 0.4205(3) 0.12877(13) 0.4798(2)
H6 H 0.34290 0.12580 0.49560
C11 C 0.4753(2) 0.18546(11) 0.47346(14)
C12 C 0.77187(19) 0.24977(9) 0.40926(13)
C13 C 0.08637(18) 0.11644(9) 0.48383(13)
C14 C 0.07840(19) 0.05972(9) 0.43545(13)
C15 C 0.1461(2) 0.01318(10) 0.46196(14)
H7 H 0.19100 0.01710 0.51100
C16 C 0.1512(2) -0.04017(10) 0.41888(14)
H8 H 0.20120 -0.07120 0.43800
C17 C 0.0845(2) -0.04762(10) 0.34949(13)
C18 C 0.0121(2) -0.00061(10) 0.31874(14)
C19 C -0.0503(3) -0.00555(12) 0.24366(17)
H9 H -0.04450 -0.04100 0.21330
C20 C -0.1187(3) 0.03991(14) 0.21426(19)
H10 H -0.16000 0.03590 0.16390
C21 C -0.1277(3) 0.09284(13) 0.25890(19)
H11 H -0.17750 0.12380 0.23930
C22 C -0.0652(2) 0.09984(11) 0.33025(16)
H12 H -0.07090 0.13610 0.35890
C23 C 0.0080(2) 0.05401(10) 0.36223(14)
C24 C 0.0885(2) -0.10615(9) 0.30657(13)
C25 C -0.0273(2) 0.37927(9) 0.44035(13)
C26 C -0.0130(2) 0.4420(1) 0.47086(14)
C27 C -0.1113(3) 0.47893(12) 0.47427(18)
C28 C -0.2398(5) 0.4583(3) 0.4525(5)
H13 H -0.25650 0.41780 0.43560
C29 C -0.3362(6) 0.4936(3) 0.4619(7)
H14 H -0.40710 0.47920 0.43250
C30 C -0.3238(6) 0.5508(3) 0.4918(7)
H15 H -0.41470 0.57720 0.50410
C31 C -0.2145(5) 0.5728(2) 0.5147(5)
H16 H -0.20440 0.61350 0.52680
C32 C -0.0977(3) 0.53760(12) 0.50430(18)
C33 C 0.1474(2) 0.24907(10) 0.80629(13)
H17 H 0.19910 0.27620 0.83320
C34 C -0.0603(2) 0.2628(1) 0.62862(13)
H18 H -0.09670 0.29430 0.59920
O15 O 0.26079(18) 0.11590(9) 0.70315(12)
N1 N 0.4401(9) 0.0659(5) 0.7061(7)
C35 C 0.3539(8) 0.1002(5) 0.6721(7)
H19 H 0.36600 0.11360 0.61880
C36 C 0.5473(8) 0.0522(4) 0.6767(6)
H20 H 0.55590 0.07140 0.62430
H21 H 0.55350 0.00920 0.67030
H22 H 0.60940 0.06610 0.71440
C37 C 0.4203(15) 0.0443(9) 0.7869(9)
H23 H 0.48720 0.01980 0.80520
H24 H 0.34830 0.02040 0.78650
H25 H 0.41220 0.07790 0.82360
O16 O 0.4595(3) 0.3451(2) 0.7240(4)
N2 N 0.2718(3) 0.37877(15) 0.7092(2)
C38 C 0.3572(4) 0.3413(3) 0.6955(4)
H26 H 0.33950 0.30870 0.66100
C39 C 0.1556(4) 0.37242(18) 0.6740(3)
H27 H 0.15640 0.34250 0.63130
H28 H 0.12960 0.41040 0.65100
H29 H 0.10150 0.36010 0.71550
C40 C 0.2897(4) 0.4240(4) 0.7675(5)
H30 H 0.37240 0.42430 0.78610
H31 H 0.23950 0.41670 0.81330
H32 H 0.26950 0.46250 0.74330
N3 N 0.589(2) 0.2680(9) 0.2229(14)
H33 H 0.64940 0.27050 0.26100
H34 H 0.54130 0.23720 0.23730
C41 C 0.639(2) 0.2540(12) 0.1465(15)
H35 H 0.68790 0.21850 0.15220
H36 H 0.68680 0.28730 0.12880
H37 H 0.57510 0.24670 0.10640
C42 C 0.5219(15) 0.3221(9) 0.2250(12)
H38 H 0.48130 0.32450 0.27610
H39 H 0.46390 0.32250 0.18000
H40 H 0.57490 0.35600 0.22040
O17 O 0.7385(6) 0.6270(3) 0.6265(4)
N4? N 0.5793(8) 0.2529(4) 0.2343(5)
H41? H 0.56090 0.21340 0.22960
H42? H 0.64020 0.25620 0.27190
C43? C 0.6204(10) 0.2733(5) 0.1576(6)
H43? H 0.68210 0.24670 0.13930
H44? H 0.65220 0.31340 0.16360
H45? H 0.55470 0.27360 0.11780
C44? C 0.4785(6) 0.2836(6) 0.2646(4)
H46? H 0.44040 0.25860 0.30440
H47? H 0.42250 0.29210 0.21990
H48? H 0.50400 0.32080 0.29000
O18? O 0.3954(9) 0.4425(4) 0.4796(7)
N5? N 0.388(2) 0.0465(8) 0.7482(15)
C45? C 0.3001(16) 0.0672(7) 0.7003(13)
H49? H 0.26680 0.04100 0.66100
C46? C 0.431(3) 0.0836(11) 0.8145(17)
H50? H 0.40280 0.12420 0.80650
H51? H 0.51770 0.08350 0.81600
H52? H 0.40320 0.06810 0.86550
C47? C 0.385(3) -0.0153(8) 0.7740(19)
H53? H 0.33920 -0.03860 0.73430
H54? H 0.34830 -0.01790 0.82650
H55? H 0.46540 -0.03080 0.77850
N6? N 0.3491(16) 0.0565(8) 0.7966(13)
C48? C 0.2756(14) 0.0975(8) 0.7678(10)
H56? H 0.22680 0.11470 0.80680
C49? C 0.369(2) 0.0430(13) 0.8767(13)
H57? H 0.32050 0.06890 0.90980
H58? H 0.45190 0.04890 0.89140
H59? H 0.34710 0.00170 0.88620
C50? C 0.407(2) 0.0196(12) 0.7392(16)
H60? H 0.45550 -0.01000 0.76810
H61? H 0.45760 0.04410 0.70600
H62? H 0.34810 -0.00040 0.70460
O19? O 0.4419(13) -0.0029(7) 0.7962(11)
N7? N 0.6280(12) 0.0471(7) 0.8276(8)
C51? C 0.5427(11) 0.0286(7) 0.7713(8)
H63? H 0.55200 0.03630 0.71490
C52? C 0.718(2) 0.0834(13) 0.8043(13)
H64? H 0.76620 0.09360 0.85060
H65? H 0.76140 0.05910 0.76860
H66? H 0.69270 0.11880 0.77680
C53? C 0.6117(10) 0.0370(6) 0.9073(7)
H67? H 0.67630 0.05320 0.93870
H68? H 0.53960 0.05470 0.92360
H69? H 0.60830 -0.00500 0.91550
H70? H -0.17270 0.46100 0.45810
H71? H -0.14930 0.56180 0.50600
O9B O -0.01431(14) 0.66090(7) 0.51533(9)
O10B O 0.07932(15) 0.62749(7) 0.62691(9)
C25B C 0.0273(2) 0.62073(9) 0.55965(13)
C26B C 0.0130(2) 0.5580(1) 0.52914(14)
C27B C 0.1113(3) 0.52107(12) 0.52573(18)
C28B C 0.2398(5) 0.5417(3) 0.5475(5)
H13B H 0.25650 0.58220 0.56440
C29B C 0.3362(6) 0.5064(3) 0.5381(7)
H14B H 0.40710 0.52080 0.56750
C30B C 0.3238(6) 0.4492(3) 0.5082(7)
H15B H 0.41470 0.42280 0.49590
C31B C 0.2145(5) 0.4272(2) 0.4853(5)
H16B H 0.20440 0.38650 0.47320
C32B C 0.0977(3) 0.46240(12) 0.49570(18)
Mg1B Mg -0.03806(6) -0.25065(3) 0.53138(4)
Mg2B Mg -0.14043(6) -0.17308(3) 0.35422(4)
Mg3B Mg 0.08342(6) -0.19180(3) 0.21319(4)
O1B O -0.21571(13) -0.26713(7) 0.51701(10)
O2B O -0.27789(14) -0.20891(7) 0.41494(9)
O3B O -0.77863(14) -0.26800(7) 0.66259(9)
O4B O -0.85601(14) -0.23745(7) 0.54423(9)
O5B O -0.11471(14) -0.11173(7) 0.44281(9)
O6B O -0.06945(15) -0.16445(7) 0.55279(9)
O7B O -0.18455(14) 0.12725(7) 0.71379(9)
O8B O 0.00770(14) 0.13338(7) 0.71074(9)
O11B O -0.05557(13) -0.23412(7) 0.15711(9)
O12B O -0.17601(14) -0.23182(7) 0.26082(9)
O13B O -0.01948(13) -0.23435(6) 0.40684(9)
O14B O 0.09541(14) -0.25386(7) 0.30267(9)
C1B C -0.29215(19) -0.23795(10) 0.47824(13)
C2B C -0.41552(19) -0.23915(10) 0.50982(13)
C3B C -0.4700(2) -0.29233(11) 0.52023(17)
H1B H -0.42810 -0.32680 0.51090
C4B C -0.5869(2) -0.29516(11) 0.54581(18)
H2B H -0.62080 -0.33190 0.55410
C5B C -0.64804(19) -0.2442(1) 0.56130(13)
C6B C -0.5935(2) -0.18808(10) 0.55263(14)
C7B C -0.6521(2) -0.13412(12) 0.57071(18)
H3B H -0.73100 -0.13530 0.58770
C8B C -0.5967(3) -0.08101(14) 0.5640(2)
H4B H -0.63740 -0.04560 0.57630
C9B C -0.4794(3) -0.07813(14) 0.5389(3)
H5B H -0.44130 -0.04090 0.53500
C10B C -0.4205(3) -0.12877(13) 0.5202(2)
H6B H -0.34290 -0.12580 0.50440
C11B C -0.4753(2) -0.18546(11) 0.52654(14)
C12B C -0.77187(19) -0.24977(9) 0.59074(13)
C13B C -0.08637(18) -0.11644(9) 0.51617(13)
C14B C -0.07840(19) -0.05972(9) 0.56455(13)
C15B C -0.1461(2) -0.01318(10) 0.53804(14)
H7B H -0.19100 -0.01710 0.48900
C16B C -0.1512(2) 0.04017(10) 0.58112(14)
H8B H -0.20120 0.07120 0.56200
C17B C -0.0845(2) 0.04762(10) 0.65051(13)
C18B C -0.0121(2) 0.00061(10) 0.68126(14)
C19B C 0.0503(3) 0.00555(12) 0.75634(17)
H9B H 0.04450 0.04100 0.78670
C20B C 0.1187(3) -0.03991(14) 0.78574(19)
H10B H 0.16000 -0.03590 0.83610
C21B C 0.1277(3) -0.09284(13) 0.74110(19)
H11B H 0.17750 -0.12380 0.76070
C22B C 0.0652(2) -0.09984(11) 0.66975(16)
H12B H 0.07090 -0.13610 0.64110
C23B C -0.0080(2) -0.05401(10) 0.63777(14)
C24B C -0.0885(2) 0.10615(9) 0.69343(13)
C33B C -0.1474(2) -0.24907(10) 0.19371(13)
H17B H -0.19910 -0.27620 0.16680
C34B C 0.0603(2) -0.2628(1) 0.37138(13)
H18B H 0.09670 -0.29430 0.40080
O15B O -0.26079(18) -0.11590(9) 0.29685(12)
N1B N -0.4401(9) -0.0659(5) 0.2939(7)
C35B C -0.3539(8) -0.1002(5) 0.3279(7)
H19B H -0.36600 -0.11360 0.38120
C36B C -0.5473(8) -0.0522(4) 0.3233(6)
H20B H -0.55590 -0.07140 0.37570
H21B H -0.55350 -0.00920 0.32970
H22B H -0.60940 -0.06610 0.28560
C37B C -0.4203(15) -0.0443(9) 0.2131(9)
H23B H -0.48720 -0.01980 0.19480
H24B H -0.34830 -0.02040 0.21350
H25B H -0.41220 -0.07790 0.17640
Mg1* Mg 1.03806(6) 0.25065(3) 0.46862(4)
Mg1A Mg -0.03806(6) -0.24935(3) 0.03138(4)
Mg1B* Mg -1.03806(6) -0.25065(3) 0.53138(4)
Mg1B** Mg -0.03806(6) 0.74935(3) 0.53138(4)
Mg1C Mg 0.03806(6) 0.24935(3) 0.96862(4)
Mg3A Mg -0.91658(6) -0.30820(3) 0.71319(4)
Mg3A* Mg 0.08342(6) 0.69180(3) 0.71319(4)
Mg3C Mg -0.08342(6) 0.30820(3) 0.28681(4)
Mg3C* Mg 0.91658(6) 0.30820(3) 0.28681(4)
O3A O 0.22137(14) -0.23200(7) 0.16259(9)
O3C O -0.22137(14) 0.23200(7) 0.83741(9)
O4* O -0.14399(14) 0.23745(7) 0.45577(9)
O4B* O 0.14399(14) -0.23745(7) 0.54423(9)
O9B* O -0.01431(14) -0.33910(7) 0.51533(9)
O10A O 0.07932(15) -0.12749(7) 0.12691(9)
O10C O -0.07932(15) 0.12749(7) 0.87309(9)
O11A O -0.05557(13) -0.26588(7) 0.65711(9)
O11C O 0.05557(13) 0.26588(7) 0.34289(9)
#END
