
#######################################################################
#
#                 Cambridge Crystallographic Data Centre
#                                CCDC
#
#######################################################################
#
# If this CIF has been generated from an entry in the Cambridge
# Structural Database, then it will include bibliographic, chemical,
# crystal, experimental, refinement or atomic coordinate data resulting
# from the CCDC's data processing and validation procedures.
#
#######################################################################

data_CSD_CIF_ZUBLOA
_audit_creation_date 2020-01-13
_audit_creation_method CSD-ConQuest-V1
_database_code_CSD ZUBLOA
_database_code_depnum_ccdc_archive 'CCDC 1959372'
_chemical_formula_sum 'C90 H186 Ag4 Mo16 N18 O54'
_chemical_formula_moiety
;
(C10 H14 Ag2 Mo8 N6 O26 2-)n,n(C10 H14 Ag2 Mo8 N6 O26 2-),4n(C16 H36 N1 
1+),2n(C3 H7 N1 O1)
;
_journal_coden_Cambridge 222
_journal_volume 49
_journal_year 2020
_journal_page_first 1522
_journal_name_full 'Dalton Trans. '
loop_
_publ_author_name
"A.V.Chupina"
"V.Shayapov"
"A.S.Novikov"
"V.V.Volchek"
"E.Benassi"
"P.A.Abramov"
"M.N.Sokolov"
_chemical_name_systematic
;
catena-(tetrakis(tetra-n-butylammonium) 
icosakis(\m-oxo)-bis(2,6-diaminopyridine)-hexaoxo-octa-molybdenum-di-silver 
bis(\m-2,6-diaminopyridine)-octadecakis(\m-oxo)-octaoxo-octa-molybdenum-di-sil
ver dimethylformamide solvate)
;
_cell_volume   3484.743
_exptl_crystal_colour 'yellow orange'
_exptl_crystal_density_diffrn 2.073
_exptl_crystal_description 'block'
_diffrn_ambient_temperature 130
_refine_special_details
;
C17A,C18A and C17B,C18B disordered over two sites with occupancies 0.5:0.5; 
C24,C25A and C25B,C42 disordered over two sites with occupancies 0.5:0.5; 
C43,C45A,N9A and C45B,C47,N9B disordered over two sites with occupancies 
0.5:0.5.
;
#These two values have been output from a single CSD field.
_refine_ls_R_factor_gt 0.0576
_refine_ls_wR_factor_gt 0.0576
_symmetry_cell_setting triclinic
_symmetry_space_group_name_H-M 'P -1'
_symmetry_Int_Tables_number 2
loop_
_symmetry_equiv_pos_site_id
_symmetry_equiv_pos_as_xyz
1 x,y,z
2 -x,-y,-z
_cell_length_a 13.0475(5)
_cell_length_b 16.5992(6)
_cell_length_c 17.9506(7)
_cell_angle_alpha 88.636(3)
_cell_angle_beta 74.794(4)
_cell_angle_gamma 68.719(4)
_cell_formula_units_Z 1
loop_
_atom_type_symbol
_atom_type_radius_bond
C 0.68
H 0.23
Ag 1.45
Mo 1.54
N 0.68
O 0.68
loop_
_atom_site_label
_atom_site_type_symbol
_atom_site_fract_x
_atom_site_fract_y
_atom_site_fract_z
Ag1 Ag 0.82830(5) -0.04912(4) 0.82955(3)
N1 N 0.9318(5) -0.0509(4) 0.7100(3)
O1 O 0.8272(4) -0.0824(3) 0.9552(3)
O2 O 0.6778(4) 0.0875(3) 0.9093(2)
O3 O 0.6407(4) -0.0045(3) 0.7839(3)
O4 O 0.7990(4) -0.1906(3) 0.8270(3)
C1 C 0.9094(7) 0.0230(5) 0.6745(4)
C2 C 1.0219(7) -0.1220(6) 0.6768(5)
Mo1 Mo 0.71787(5) -0.10019(4) 1.02376(3)
Mo2 Mo 0.56013(5) 0.08001(4) 0.97328(3)
Mo3 Mo 0.52150(5) -0.02032(4) 0.83824(3)
Mo4 Mo 0.68120(6) -0.20465(4) 0.88754(4)
C3 C 0.9850(8) 0.0277(7) 0.6051(5)
N2 N 0.8165(6) 0.0929(4) 0.7095(4)
C4 C 1.0986(7) -0.1201(7) 0.6077(6)
N3 N 1.0339(5) -0.1949(4) 0.7163(4)
O5 O 0.6234(4) 0.0255(3) 1.0567(3)
O6 O 0.7707(4) -0.1310(3) 1.1006(3)
O7 O 0.7237(4) -0.2052(3) 0.9822(3)
O8 O 0.5946(4) -0.0528(3) 0.9447(2)
O9 O 0.5405(4) -0.0912(3) 1.0933(2)
O10 O 0.4844(4) 0.1831(3) 1.0227(3)
O11 O 0.4288(4) 0.0067(3) 0.7834(3)
O12 O 0.5703(4) -0.1423(3) 0.8325(3)
O13 O 0.6993(4) -0.3085(3) 0.8676(3)
H1 H 0.97171 0.08049 0.58062
C5 C 1.0789(8) -0.0447(9) 0.5724(5)
H2 H 0.77204 0.08942 0.75470
H3 H 0.80041 0.14197 0.68699
H4 H 1.16371 -0.17041 0.58543
H5 H 0.98396 -0.19301 0.76067
H6 H 1.09161 -0.24368 0.69734
H7 H 1.13053 -0.04230 0.52475
C6 C 0.2095(7) 0.8857(5) 0.8694(5)
H8 H 0.18071 0.89089 0.92656
H9 H 0.26555 0.91459 0.85573
C7 C 0.3260(7) 0.7774(6) 0.7553(4)
H10 H 0.26470 0.79723 0.72861
H11 H 0.36760 0.71440 0.74112
C8 C 0.4090(7) 0.8236(5) 0.7245(4)
H12 H 0.36693 0.88713 0.73198
H13 H 0.46731 0.80857 0.75365
C9 C 0.4671(9) 0.7970(6) 0.6393(4)
H14 H 0.51225 0.73386 0.63279
H15 H 0.40780 0.80803 0.61131
C10 C 0.5442(9) 0.8438(6) 0.6035(5)
H16 H 0.57903 0.82376 0.54854
H17 H 0.49985 0.90630 0.60846
H18 H 0.60439 0.83207 0.62996
C11 C 0.3607(6) 0.7560(5) 0.8860(4)
H19 H 0.32150 0.76212 0.94201
H20 H 0.40731 0.79273 0.87781
C12 C 0.1906(6) 0.7412(5) 0.8570(4)
H21 H 0.13201 0.76760 0.82895
H22 H 0.23537 0.68104 0.83380
C13 C 0.1302(9) 0.7367(7) 0.9393(6)
H23 H 0.08475 0.79612 0.96411
H24 H 0.18693 0.70742 0.96815
C14 C 0.0520(9) 0.6871(7) 0.9424(6)
H25 H -0.01110 0.72129 0.92022
H26 H 0.09563 0.63171 0.90988
C15 C 0.0024(9) 0.6680(7) 1.0230(6)
H27 H -0.04720 0.63601 1.02163
H28 H 0.06437 0.63300 1.04490
H29 H -0.04240 0.72262 1.05525
N4 N 0.2706(5) 0.7908(4) 0.8422(3)
C16 C 0.5093(12) 0.6190(9) 0.9180(8)
H30 H 0.45782 0.60868 0.96535
H31 H 0.54282 0.65863 0.93321
C17 C 0.6076(15) 0.5307(12) 0.8824(10)
H32 H 0.64963 0.50557 0.92052
H33 H 0.57489 0.49060 0.86822
H34 H 0.65993 0.54056 0.83608
C18 C 0.4412(7) 0.6614(6) 0.8636(5)
H35 H 0.39510 0.62720 0.85766
H36 H 0.49495 0.65847 0.81229
C19 C 0.1117(9) 0.9328(7) 0.8366(6)
H37 H 0.05390 0.90542 0.84744
H38 H 0.13755 0.93691 0.78015
C20 C 0.0596(14) 1.0348(10) 0.8888(10)
H39 H 0.04415 1.02770 0.94510
H40 H 0.11712 1.06230 0.87430
C21 C -0.0488(14) 1.0906(11) 0.8697(9)
H41 H -0.07908 1.14767 0.89822
H42 H -0.03258 1.09750 0.81396
H43 H -0.10529 1.06302 0.88452
C22 C 0.9153(6) 0.6564(5) 0.4992(4)
C23 C 0.9401(6) 0.7305(5) 0.5002(5)
H44 H 0.98413 0.74593 0.45513
C24 C 0.8981(7) 0.7812(6) 0.5691(5)
H45 H 0.91477 0.83201 0.57212
C25 C 0.8331(8) 0.7596(7) 0.6331(5)
H46 H 0.80258 0.79551 0.68019
C26 C 0.8126(7) 0.6836(7) 0.6278(5)
N5 N 0.9595(5) 0.5995(4) 0.4335(3)
H47 H 0.94683 0.55087 0.43452
H48 H 1.00025 0.61204 0.39071
N6 N 0.8546(5) 0.6322(4) 0.5614(3)
N7 N 0.7482(7) 0.6570(6) 0.6891(4)
H49 H 0.73635 0.60879 0.68371
H50 H 0.71856 0.68811 0.73388
O14 O 0.5856(4) 0.3889(3) 0.6587(3)
O15 O 0.4070(5) 0.5323(4) 0.7452(3)
O16 O 0.6045(5) 0.5508(4) 0.6696(3)
O17 O 0.4276(4) 0.6056(3) 0.5996(3)
O18 O 0.5963(3) 0.4692(3) 0.5257(2)
O19 O 0.7985(5) 0.3857(4) 0.5857(3)
O20 O 0.7687(5) 0.2320(4) 0.5953(4)
O21 O 0.7664(4) 0.3230(3) 0.4584(3)
O22 O 0.7940(4) 0.3824(3) 0.3133(3)
O23 O 0.8190(4) 0.4715(3) 0.4271(3)
O24 O 0.6094(4) 0.5343(3) 0.3933(2)
O25 O 0.6245(4) 0.6359(3) 0.5087(2)
O26 O 0.4295(4) 0.6836(3) 0.4628(3)
Mo5 Mo 0.71238(6) 0.33500(5) 0.56943(5)
Mo6 Mo 0.50586(6) 0.51035(5) 0.65841(4)
Mo7 Mo 0.52753(5) 0.59686(4) 0.49569(3)
Mo8 Mo 0.73104(5) 0.42489(4) 0.40615(4)
Ag2 Ag 0.83576(6) 0.50650(5) 0.55995(4)
C27 C 0.5778(6) 0.7540(5) 0.3378(4)
H51 H 0.54124 0.71180 0.33469
H52 H 0.59725 0.74894 0.38791
C28 C 0.4916(6) 0.8443(6) 0.3378(4)
H53 H 0.53364 0.88229 0.31583
H54 H 0.44511 0.84191 0.30290
C29 C 0.4145(8) 0.8841(5) 0.4131(5)
H55 H 0.46094 0.88280 0.44908
H56 H 0.36846 0.84833 0.43346
C30 C 0.3336(6) 0.9767(5) 0.4137(4)
H57 H 0.28553 0.99768 0.46661
H58 H 0.37785 1.01346 0.39534
H59 H 0.28514 0.97890 0.37968
C31 C 0.7468(6) 0.7924(5) 0.2730(4)
H60 H 0.69998 0.84864 0.25785
H61 H 0.82134 0.77062 0.23313
C32 C 0.7676(7) 0.8079(6) 0.3506(5)
H62 H 0.69385 0.82688 0.39128
H63 H 0.81845 0.75251 0.36450
C33 C 0.8207(8) 0.8750(6) 0.3490(5)
H64 H 0.84964 0.87169 0.39519
H65 H 0.88668 0.86163 0.30255
C34 C 0.741(1) 0.9624(8) 0.3479(7)
H66 H 0.77972 1.00335 0.34688
H67 H 0.71332 0.96645 0.30169
H68 H 0.67628 0.97651 0.39435
C35 C 0.6629(6) 0.7293(5) 0.1946(4)
H69 H 0.61540 0.78910 0.18705
H70 H 0.73606 0.71202 0.15346
C36 C 0.6024(8) 0.6695(7) 0.1856(5)
H71 H 0.52121 0.69548 0.21586
H72 H 0.63777 0.61343 0.20634
C37 C 0.6095(7) 0.6539(7) 0.0995(4)
H73 H 0.55120 0.63001 0.09657
H74 H 0.59071 0.71034 0.07618
C38 C 0.7224(9) 0.5943(7) 0.0533(6)
H75 H 0.72067 0.58749 -0.00038
H76 H 0.78059 0.61814 0.05459
H77 H 0.74102 0.53770 0.07501
C39 C 0.7641(6) 0.6389(5) 0.2859(4)
H78 H 0.78283 0.64206 0.33550
H79 H 0.72034 0.60024 0.29145
C40 C 0.8749(6) 0.5978(5) 0.2229(4)
H80 H 0.85736 0.59573 0.17273
H81 H 0.92127 0.63437 0.21869
C41 C 0.9426(7) 0.5083(6) 0.2386(5)
H82 H 0.89240 0.47443 0.24975
H83 H 0.96777 0.51176 0.28545
C42 C 1.0464(7) 0.4606(7) 0.1729(5)
H84 H 1.08636 0.40257 0.18733
H85 H 1.02237 0.45534 0.12645
H86 H 1.09786 0.49272 0.16220
N8 N 0.6876(5) 0.7288(4) 0.2732(3)
C43 C 1.3028(9) 0.6942(7) 0.1865(6)
H87 H 1.31499 0.72918 0.14273
H88 H 1.31858 0.71618 0.23076
H89 H 1.35423 0.63365 0.17181
O27 O 1.0431(6) 0.6724(5) 0.2899(4)
C44 C 1.1604(14) 0.6581(11) 0.2618(9)
H90 H 1.21240 0.61716 0.28536
N9 N 1.2013(11) 0.6988(9) 0.2048(7)
C45 C 1.1348(17) 0.7526(14) 0.1616(11)
H91 H 1.05697 0.75283 0.17914
H92 H 1.13282 0.81163 0.16828
H93 H 1.16750 0.73156 0.10678
C46? C 0.4558(16) 0.6277(12) 0.9546(10)
H94? H 0.47727 0.66780 0.98165
H95? H 0.38423 0.62349 0.98738
C47? C 0.5515(17) 0.5389(14) 0.9343(12)
H96? H 0.56704 0.51350 0.98186
H97? H 0.52841 0.50096 0.90675
H98? H 0.62068 0.54490 0.90107
H99? H 0.51543 0.65676 0.82763
H100? H 0.40651 0.62812 0.84015
H101? H 0.13055 0.90835 0.78280
H102? H 0.04376 0.92140 0.86688
C48? C 0.0812(14) 1.0268(11) 0.8359(10)
H103? H 0.15000 1.04208 0.82474
H104? H 0.03857 1.05064 0.79718
C49? C 0.0096(15) 1.0580(12) 0.9141(9)
H105? H -0.01588 1.12139 0.91994
H106? H -0.05705 1.04118 0.92385
H107? H 0.05348 1.03269 0.95119
H108? H 1.36525 0.64796 0.15075
H109? H 1.27827 0.74650 0.15903
H110? H 1.32928 0.70689 0.22953
C50? C 1.1018(16) 0.7127(14) 0.269(1)
H111? H 1.08373 0.77149 0.28506
N10? N 1.1954(16) 0.6629(13) 0.2203(11)
C51? C 1.219(2) 0.5713(17) 0.2171(14)
H112? H 1.29129 0.54099 0.17830
H113? H 1.22343 0.54996 0.26789
H114? H 1.15695 0.56046 0.20277
O9A O 0.4595(4) 0.0912(3) 0.9067(2)
O8A O 0.4054(4) 0.0528(3) 1.0553(2)
O5A O 0.3766(4) -0.0255(3) 0.9433(3)
O10A O 0.5156(4) -0.1831(3) 0.9773(3)
Mo3A Mo 0.47850(5) 0.02032(4) 1.16176(3)
Mo2A Mo 0.43987(5) -0.08001(4) 1.02672(3)
Mo4A Mo 0.31880(6) 0.20465(4) 1.11246(4)
Mo1A Mo 0.28213(5) 0.10019(4) 0.97624(3)
O11A O 0.5712(4) -0.0067(3) 1.2166(3)
O3A O 0.3593(4) 0.0045(3) 1.2161(3)
O12A O 0.4297(4) 0.1423(3) 1.1675(3)
O2A O 0.3222(4) -0.0875(3) 1.0907(2)
O7A O 0.2763(4) 0.2052(3) 1.0178(3)
O4A O 0.2010(4) 0.1906(3) 1.1730(3)
O13A O 0.3007(4) 0.3085(3) 1.1324(3)
O6A O 0.2293(4) 0.1310(3) 0.8994(3)
O1A O 0.1728(4) 0.0824(3) 1.0448(3)
Ag1A Ag 0.17170(5) 0.04912(4) 1.17045(3)
N1A N 0.0682(5) 0.0509(4) 1.2900(3)
C1A C 0.0906(7) -0.0230(5) 1.3255(4)
C2A C -0.0219(7) 0.1220(6) 1.3232(5)
C3A C 0.0150(8) -0.0277(7) 1.3949(5)
N2A N 0.1835(6) -0.0929(4) 1.2905(4)
C4A C -0.0986(7) 0.1201(7) 1.3923(6)
N3A N -0.0339(5) 0.1949(4) 1.2837(4)
H1A H 0.02829 -0.08049 1.41938
C5A C -0.0789(8) 0.0447(9) 1.4276(5)
H2A H 0.22796 -0.08942 1.24530
H3A H 0.19959 -0.14197 1.31301
H4A H -0.16371 0.17041 1.41457
H5A H 0.01604 0.19301 1.23933
H6A H -0.09161 0.24368 1.30266
H7A H -0.13053 0.04230 1.47525
N5A N 1.0405(5) 0.4005(4) 0.5665(3)
O17A O 0.5724(4) 0.3944(3) 0.4004(3)
O18A O 0.4037(3) 0.5308(3) 0.4743(2)
O24A O 0.3906(4) 0.4657(3) 0.6067(2)
O26A O 0.5705(4) 0.3164(3) 0.5372(3)
Mo5A Mo 0.28762(6) 0.66500(5) 0.43057(5)
Mo6A Mo 0.49414(6) 0.48965(5) 0.34159(4)
Mo7A Mo 0.47247(5) 0.40314(4) 0.50431(3)
Mo8A Mo 0.26896(5) 0.57511(4) 0.59385(4)
Ag2A Ag 1.16424(6) 0.49350(5) 0.44005(4)
H47A H 1.05317 0.44913 0.56548
H48A H 0.99975 0.38796 0.60929
C22A C 0.0847(6) 0.3436(5) 0.5008(4)
C23A C 0.0599(6) 0.2695(5) 0.4998(5)
N5A* N 0.0405(5) 0.4005(4) 0.5665(3)
N6A N 0.1454(5) 0.3678(4) 0.4386(3)
H44A H 0.01587 0.25407 0.54487
C24A C 0.1019(7) 0.2188(6) 0.4309(5)
H45A H 0.08523 0.16799 0.42788
C25A C 0.1669(8) 0.2404(7) 0.3669(5)
H46A H 0.19742 0.20449 0.31981
C26A C 0.1874(7) 0.3164(7) 0.3722(5)
N7A N 0.2518(7) 0.3430(6) 0.3109(4)
H47A* H 0.05317 0.44913 0.56548
H48A* H -0.00025 0.38796 0.60929
Ag2* Ag -0.16424(6) 0.50650(5) 0.55995(4)
Ag2A* Ag 0.16424(6) 0.49350(5) 0.44005(4)
H49A H 0.26365 0.39121 0.31629
H50A H 0.28144 0.31189 0.26612
O14A O 0.4144(4) 0.6111(3) 0.3413(3)
O15A O 0.5930(5) 0.4677(4) 0.2548(3)
O16A O 0.3955(5) 0.4492(4) 0.3304(3)
O19A O 0.2015(5) 0.6143(4) 0.4143(3)
O20A O 0.2313(5) 0.7680(4) 0.4047(4)
O21A O 0.2336(4) 0.6770(3) 0.5416(3)
O22A O 0.2060(4) 0.6176(3) 0.6867(3)
O23A O 0.1810(4) 0.5285(3) 0.5729(3)
O25A O 0.3755(4) 0.3641(3) 0.4913(2)
N5* N -0.0405(5) 0.5995(4) 0.4335(3)
#END
