
#######################################################################
#
#                 Cambridge Crystallographic Data Centre
#                                CCDC
#
#######################################################################
#
# If this CIF has been generated from an entry in the Cambridge
# Structural Database, then it will include bibliographic, chemical,
# crystal, experimental, refinement or atomic coordinate data resulting
# from the CCDC's data processing and validation procedures.
#
#######################################################################

data_CSD_CIF_ZUBPET
_audit_creation_date 2015-03-30
_audit_creation_method CSD-ConQuest-V1
_database_code_CSD ZUBPET
_database_code_depnum_ccdc_archive 'CCDC 1024730'
_chemical_formula_sum 'C48 H47 Cu7 Mo12 N40 O48 P1'
_chemical_formula_moiety
;
(C48 H38 Cu7 N40 O4 4+)n,n(H1 Mo12 O40 P1 4-),4n(H2 O1)
;
_journal_coden_Cambridge 1350
_journal_volume 17
_journal_year 2015
_journal_page_first 3257
_journal_name_full 'CrystEngComm '
loop_
_publ_author_name
"Xiu-Li Wang"
"Tian-Jiao Li"
"Ai-Xiang Tian"
"Na Li"
"Yang Yang"
"Ya-Li Ning"
"Xue Hou"
_chemical_name_systematic
;
catena-(bis(\m~3~-5-(2-Pyridyl)tetrazolato)-hexakis(\m~2~-5-(2-pyridyl)tetrazo
lato)-bis(\m~2~-hydroxo)-diaqua-hepta-copper 
(\m~12~-phosphato)-(\m~2~-hydroxo)-tricosakis(\m~2~-oxo)-dodecaoxo-dodeca-moly
bdenum tetrahydrate)
;
_cell_volume   2246.959
_exptl_crystal_colour 'blue'
_exptl_crystal_density_diffrn 2.645
_exptl_special_details
;
We have assigned the proton associated with the anion arbitrarily

;
_exptl_crystal_description 'block'
_diffrn_ambient_temperature 293
_refine_special_details
;
The phosphate moiety is disordered by symmetry.

;
#These two values have been output from a single CSD field.
_refine_ls_R_factor_gt 0.0602
_refine_ls_wR_factor_gt 0.0602
_symmetry_cell_setting triclinic
_symmetry_space_group_name_H-M 'P -1'
_symmetry_Int_Tables_number 2
loop_
_symmetry_equiv_pos_site_id
_symmetry_equiv_pos_as_xyz
1 x,y,z
2 -x,-y,-z
_cell_length_a 11.5446(12)
_cell_length_b 14.7733(16)
_cell_length_c 15.4797(16)
_cell_angle_alpha 66.933(2)
_cell_angle_beta 69.503(2)
_cell_angle_gamma 89.899(2)
_cell_formula_units_Z 1
loop_
_atom_type_symbol
_atom_type_radius_bond
C 0.68
H 0.23
Cu 1.32
Mo 1.54
N 0.68
O 0.68
P 1.05
loop_
_atom_site_label
_atom_site_type_symbol
_atom_site_fract_x
_atom_site_fract_y
_atom_site_fract_z
P1 P 1.00000 -1.00000 1.00000
Mo1 Mo 1.10127(9) -0.80759(8) 0.75154(7)
O1 O 1.0552(12) -0.9336(10) 1.0328(9)
Mo2 Mo 0.99259(9) -1.05431(7) 0.79852(7)
O2 O 0.9434(11) -1.0209(9) 1.1053(9)
Mo3 Mo 0.71621(10) -1.00125(8) 1.18906(7)
O3 O 0.9975(11) -1.1109(9) 1.0672(9)
Mo4 Mo 0.79577(11) -0.82957(9) 0.93321(9)
O4 O 0.8515(13) -0.9885(10) 1.0296(9)
Mo5 Mo 1.06640(9) -0.74832(8) 0.95942(8)
O5 O 1.1275(8) -0.7381(10) 0.8198(8)
Mo6 Mo 0.70906(10) -1.08870(8) 1.00727(8)
O6 O 0.9219(7) -0.7989(9) 0.8097(8)
O7 O 0.6555(11) -1.0758(9) 1.1269(9)
O8 O 0.7057(7) -0.7459(6) 0.9040(6)
O9 O 1.1029(7) -0.6310(5) 0.9380(5)
O10 O 1.1454(8) -0.7174(6) 0.6349(6)
O11 O 0.5832(7) -1.0104(7) 1.2792(7)
O12 O 1.2299(7) -0.7949(7) 0.9510(6)
O13 O 0.8247(8) -1.0610(7) 0.8662(7)
O14 O 0.5775(7) -1.1253(6) 1.0021(6)
O15 O 0.9934(10) -1.0809(8) 0.7050(7)
O16 O 1.0203(7) -0.8114(7) 1.0979(7)
O17 O 1.1700(7) -1.0516(6) 0.7800(7)
O18 O 1.2391(7) -0.8677(6) 0.7451(7)
O19 O 1.0286(7) -0.9172(6) 0.7351(7)
O20 O 0.7205(13) -0.9408(7) 0.9373(7)
O21 O 0.9092(8) -0.7532(9) 0.9607(8)
O22 O 0.7201(14) -0.8874(7) 1.0824(7)
Cu1 Cu 1.32020(13) -0.57580(11) 0.53229(10)
C1 C 1.343(1) -0.5393(8) 0.6896(8)
N1 N 1.4283(8) -0.6442(7) 0.6103(7)
O23 O 1.3869(7) -0.9024(6) 0.3356(6)
Cu2 Cu 1.86372(12) -0.68567(10) 0.23255(9)
C2 C 1.4235(10) -0.6172(8) 0.6836(8)
N2 N 1.3214(8) -0.4916(7) 0.7483(6)
Cu3 Cu 1.52771(12) -0.78865(10) 0.25012(10)
C3 C 1.4862(11) -0.6599(9) 0.7493(9)
H1 H 1.48020 -0.64070 0.80100
N3 N 1.2434(9) -0.4291(8) 0.7161(7)
N4 N 1.2217(10) -0.4407(7) 0.6414(7)
C4 C 1.5571(12) -0.7314(10) 0.734(1)
H2 H 1.60160 -0.76030 0.77500
Cu4 Cu 2.00000 -0.50000 0.00000
C5 C 1.5624(11) -0.7605(10) 0.6584(9)
H3 H 1.60980 -0.80900 0.64820
N5 N 1.2858(9) -0.5110(7) 0.6240(7)
C6 C 1.4962(11) -0.7163(9) 0.5980(9)
H4 H 1.49810 -0.73660 0.54780
N6 N 1.9349(8) -0.7460(7) 0.3434(7)
C7 C 1.7384(10) -0.8443(9) 0.4216(7)
N7 N 1.6363(9) -0.9066(9) 0.4898(8)
N8 N 1.5571(10) -0.8979(8) 0.4411(8)
C8 C 1.8542(10) -0.8210(9) 0.4298(8)
C9 C 1.8830(12) -0.8715(10) 0.5133(10)
H5 H 1.82520 -0.92140 0.57190
N9 N 1.6108(8) -0.8342(7) 0.3479(7)
N10 N 1.7257(8) -0.7976(6) 0.3329(6)
C10 C 2.0021(14) -0.8450(11) 0.5064(10)
H6 H 2.02510 -0.87760 0.56140
N11 N 1.4608(8) -0.7325(7) 0.1378(7)
C11 C 2.0856(13) -0.7719(11) 0.4203(11)
H7 H 2.16580 -0.75510 0.41570
N12 N 1.6794(8) -0.6947(7) 0.1383(6)
C12 C 2.0498(12) -0.7234(9) 0.3405(10)
H8 H 2.10680 -0.67290 0.28200
N13 N 1.7895(8) -0.6583(6) 0.1269(6)
C13 C 1.6612(10) -0.6385(9) 0.0527(7)
C14 C 1.5377(10) -0.6570(8) 0.0517(8)
N14 N 1.8367(8) -0.5819(6) 0.0375(6)
C15 C 1.4999(11) -0.601(1) -0.0265(9)
H9 H 1.55570 -0.55050 -0.08590
N15 N 1.7586(8) -0.5672(7) -0.0123(6)
C16 C 1.3749(12) -0.6228(10) -0.0135(9)
H10 H 1.34620 -0.58950 -0.06500
N16 N 1.2295(9) -0.4929(7) 0.4441(7)
N17 N 1.3759(8) -0.6232(7) 0.4244(6)
C17 C 1.2961(11) -0.6957(11) 0.0787(10)
H11 H 1.21100 -0.70750 0.09250
C18 C 1.3428(11) -0.7499(9) 0.1491(8)
H12 H 1.28910 -0.80190 0.20820
N18 N 1.4479(8) -0.6870(7) 0.3990(6)
N19 N 1.4410(8) -0.6845(7) 0.3155(7)
C19 C 1.3323(10) -0.5832(8) 0.3519(8)
C20 C 1.2446(11) -0.5117(9) 0.3625(8)
N20 N 1.3686(8) -0.6181(7) 0.2824(7)
C21 C 1.1815(12) -0.4707(10) 0.2984(10)
H13 H 1.19250 -0.48600 0.24350
C22 C 1.1015(15) -0.4061(11) 0.3197(11)
H14 H 1.05570 -0.37830 0.27950
C23 C 1.0889(14) -0.3828(11) 0.3982(11)
H15 H 1.03740 -0.33700 0.41030
O24 O 2.0065(7) -0.5874(5) 0.1314(5)
C24 C 1.1529(12) -0.427(1) 0.4608(10)
H16 H 1.14320 -0.41110 0.51520
O25 O 1.6501(10) -0.9828(9) 0.7647(8)
O26 O 1.2774(18) -0.9048(16) 0.5367(13)
O1A O 0.9448(12) -1.0664(10) 0.9672(9)
O2A O 1.0566(11) -0.9791(9) 0.8947(9)
O3A O 1.0025(11) -0.8891(9) 0.9328(9)
O4A O 1.1485(13) -1.0115(10) 0.9704(9)
Mo1A Mo 0.89873(9) -1.19241(8) 1.24846(7)
Mo2A Mo 1.00741(9) -0.94569(7) 1.20148(7)
Mo3A Mo 1.28379(10) -0.99875(8) 0.81094(7)
Mo4A Mo 1.20423(11) -1.17043(9) 1.06679(9)
Mo5A Mo 0.93360(9) -1.25168(8) 1.04058(8)
O5A O 0.8725(8) -1.2619(10) 1.1802(8)
Mo6A Mo 1.29094(10) -0.91130(8) 0.99273(8)
O6A O 1.0781(7) -1.2011(9) 1.1903(8)
O7A O 1.3445(11) -0.9242(9) 0.8731(9)
O8A O 1.2943(7) -1.2541(6) 1.0960(6)
O9A O 0.8971(7) -1.3690(5) 1.0620(5)
O10A O 0.8546(8) -1.2826(6) 1.3651(6)
O11A O 1.4168(7) -0.9896(7) 0.7208(7)
O12A O 0.7701(7) -1.2051(7) 1.0490(6)
O13A O 1.1753(8) -0.9390(7) 1.1338(7)
O14A O 1.4225(7) -0.8747(6) 0.9979(6)
O15A O 1.0066(10) -0.9191(8) 1.2950(7)
O16A O 0.9797(7) -1.1886(7) 0.9021(7)
O17A O 0.8300(7) -0.9484(6) 1.2200(7)
O18A O 0.7609(7) -1.1323(6) 1.2549(7)
O19A O 0.9714(7) -1.0828(6) 1.2649(7)
O20A O 1.2795(13) -1.0592(7) 1.0627(7)
O21A O 1.0908(8) -1.2468(9) 1.0393(8)
O22A O 1.2799(14) -1.1126(7) 0.9176(7)
Cu1A Cu 1.67980(13) -0.42420(11) 0.46771(10)
C1A C 1.657(1) -0.4607(8) 0.3104(8)
N1A N 1.5717(8) -0.3558(7) 0.3897(7)
O23A O 1.6131(7) -0.0976(6) 0.6644(6)
Cu2A Cu 1.13628(12) -0.31433(10) 0.76745(9)
C2A C 1.5765(10) -0.3828(8) 0.3164(8)
N2A N 1.6786(8) -0.5084(7) 0.2517(6)
Cu3A Cu 1.47229(12) -0.21135(10) 0.74988(10)
C3A C 1.5138(11) -0.3401(9) 0.2507(9)
H1A H 1.51980 -0.35930 0.19900
N3A N 1.7566(9) -0.5709(8) 0.2839(7)
N4A N 1.7783(10) -0.5593(7) 0.3586(7)
C4A C 1.4429(12) -0.2686(10) 0.266(1)
H2A H 1.39840 -0.23970 0.22500
C5A C 1.4376(11) -0.2395(10) 0.3416(9)
H3A H 1.39020 -0.19100 0.35180
N5A N 1.7142(9) -0.4890(7) 0.3760(7)
C6A C 1.5038(11) -0.2837(9) 0.4020(9)
H4A H 1.50190 -0.26340 0.45220
N6A N 1.0651(8) -0.2540(7) 0.6566(7)
C7A C 1.2616(10) -0.1557(9) 0.5784(7)
N7A N 1.3637(9) -0.0934(9) 0.5102(8)
N8A N 1.4429(10) -0.1021(8) 0.5589(8)
C8A C 1.1458(10) -0.1790(9) 0.5702(8)
C9A C 1.1170(12) -0.1285(10) 0.4867(10)
H5A H 1.17480 -0.07860 0.42810
N9A N 1.3892(8) -0.1658(7) 0.6521(7)
N10A N 1.2743(8) -0.2024(6) 0.6671(6)
C10A C 0.9979(14) -0.1550(11) 0.4936(10)
H6A H 0.97490 -0.12240 0.43860
N11A N 1.5392(8) -0.2675(7) 0.8622(7)
C11A C 0.9144(13) -0.2281(11) 0.5797(11)
H7A H 0.83420 -0.24490 0.58430
N12A N 1.3206(8) -0.3053(7) 0.8617(6)
C12A C 0.9502(12) -0.2766(9) 0.6595(10)
H8A H 0.89320 -0.32710 0.71800
N13A N 1.2105(8) -0.3417(6) 0.8731(6)
C13A C 1.3388(10) -0.3615(9) 0.9473(7)
C14A C 1.4623(10) -0.3430(8) 0.9483(8)
N14A N 1.1633(8) -0.4181(6) 0.9625(6)
C15A C 1.5001(11) -0.399(1) 1.0265(9)
H9A H 1.44430 -0.44950 1.08590
N15A N 1.2414(8) -0.4328(7) 1.0123(6)
C16A C 1.6251(12) -0.3772(10) 1.0135(9)
H10A H 1.65380 -0.41050 1.06500
N16A N 1.7705(9) -0.5071(7) 0.5559(7)
N17A N 1.6241(8) -0.3768(7) 0.5756(6)
C17A C 1.7039(11) -0.3043(11) 0.9213(10)
H11A H 1.78900 -0.29250 0.90750
C18A C 1.6572(11) -0.2501(9) 0.8509(8)
H12A H 1.71090 -0.19810 0.79180
N18A N 1.5521(8) -0.3130(7) 0.6010(6)
N19A N 1.5590(8) -0.3155(7) 0.6845(7)
C19A C 1.6677(10) -0.4168(8) 0.6481(8)
C20A C 1.7554(11) -0.4883(9) 0.6375(8)
N20A N 1.6314(8) -0.3819(7) 0.7176(7)
C21A C 1.8185(12) -0.5293(10) 0.7016(10)
H13A H 1.80750 -0.51400 0.75650
C22A C 1.8985(15) -0.5939(11) 0.6803(11)
H14A H 1.94430 -0.62170 0.72050
C23A C 1.9111(14) -0.6172(11) 0.6018(11)
H15A H 1.96260 -0.66300 0.58970
O24A O 0.9935(7) -0.4126(5) 0.8686(5)
C24A C 1.8471(12) -0.573(1) 0.5392(10)
H16A H 1.85680 -0.58890 0.48480
Cu4* Cu 1.00000 -0.50000 1.00000
N14A* N 2.1633(8) -0.4181(6) -0.0375(6)
O24A* O 1.9935(7) -0.4126(5) -0.1314(5)
#END
