
#######################################################################
#
#                 Cambridge Crystallographic Data Centre
#                                CCDC
#
#######################################################################
#
# If this CIF has been generated from an entry in the Cambridge
# Structural Database, then it will include bibliographic, chemical,
# crystal, experimental, refinement or atomic coordinate data resulting
# from the CCDC's data processing and validation procedures.
#
#######################################################################

data_CSD_CIF_ZUBQOE
_audit_creation_date 2015-03-30
_audit_creation_method CSD-ConQuest-V1
_database_code_CSD ZUBQOE
_database_code_depnum_ccdc_archive 'CCDC 1048168'
_chemical_formula_sum 'C68 H124 N17 O70 P1 W12 Zn1'
_chemical_formula_moiety
;
(C42 H32 N8 O8 Zn1 4+)n,n(C2 H8 N1 1+),n(O40 P1 W12 5-),8n(C3 H7 N1 
O1),14n(H2 O1)
;
_journal_coden_Cambridge 222
_journal_volume 44
_journal_year 2015
_journal_page_first 7862
_journal_name_full 'Dalton Trans. '
loop_
_publ_author_name
"Sha Ou"
"Jun-Ping Zheng"
"Guo-Qiang Kong"
"Chuan-De Wu"
_chemical_name_systematic
;
catena-(Dimethylammonium 
bis(\m~2~-4-(1-((3-(4-carboxylatophenyl)-1H-imidazol-3-ium-1-yl)methyl)-1H-imi
dazol-3-ium-3-yl)benzoate)-zinc 
(\m~12~-phosphato)-tetracosakis(\m~2~-oxo)-dodecaoxo-dodeca-tungsten 
dimethylformamide solvate tetradecahydrate)
;
_cell_volume  12675.091
_exptl_crystal_colour 'colorless'
_exptl_crystal_density_diffrn 1.949
_exptl_crystal_description 'needle'
_diffrn_ambient_temperature 293
_refine_special_details
;
O1,O2,O21,O22 disordered by symmetry over two configurations with occupancy 
0.50. The SQUEEZE/PLATON program was used to model the dimethylammonium 
cation, dimethylformamide and water molecules.
;
#These two values have been output from a single CSD field.
_refine_ls_R_factor_gt 0.0848
_refine_ls_wR_factor_gt 0.0848
_symmetry_cell_setting monoclinic
_symmetry_space_group_name_H-M 'C 2/c'
_symmetry_Int_Tables_number 15
loop_
_symmetry_equiv_pos_site_id
_symmetry_equiv_pos_as_xyz
1 x,y,z
2 -x,y,1/2-z
3 1/2+x,1/2+y,z
4 1/2-x,1/2+y,1/2-z
5 -x,-y,-z
6 x,-y,-1/2+z
7 -1/2-x,-1/2-y,-z
8 -1/2+x,-1/2-y,-1/2+z
_cell_length_a 21.205(2)
_cell_length_b 30.853(2)
_cell_length_c 19.6747(16)
_cell_angle_alpha 90
_cell_angle_beta 100.033(8)
_cell_angle_gamma 90
_cell_formula_units_Z 4
loop_
_atom_type_symbol
_atom_type_radius_bond
C 0.68
H 0.23
N 0.68
O 0.68
P 1.05
W 1.62
Zn 1.22
loop_
_atom_site_label
_atom_site_type_symbol
_atom_site_fract_x
_atom_site_fract_y
_atom_site_fract_z
W1 W 0.37880(5) 0.12963(3) 0.31619(6)
W2 W 0.37809(6) 0.24507(4) 0.31518(6)
W3 W 0.61972(6) 0.24537(3) 0.36507(6)
W4 W 0.49760(6) 0.18750(4) 0.42998(5)
W5 W 0.61915(6) 0.12980(4) 0.36385(7)
W6 W 0.50000 0.30301(4) 0.25000
W7 W 0.50000 0.07156(4) 0.25000
P1 P 0.50000 0.18707(19) 0.25000
O1 O 0.4559(10) 0.1491(6) 0.2464(14)
O2 O 0.4564(8) 0.1845(6) 0.3023(8)
O3 O 0.4358(8) 0.2899(5) 0.1713(8)
O4 O 0.5578(10) 0.1463(6) 0.4197(14)
O5 O 0.50000 0.3588(8) 0.25000
O6 O 0.3207(10) 0.0994(7) 0.3484(11)
O7 O 0.6754(9) 0.1003(6) 0.4195(9)
O8 O 0.5620(12) 0.2328(6) 0.4218(12)
O9 O 0.3474(9) 0.1883(7) 0.3138(8)
O10 O 0.4333(10) 0.2289(6) 0.397(1)
O11 O 0.6505(10) 0.1863(7) 0.3753(11)
O12 O 0.4389(10) 0.0855(6) 0.1711(11)
O13 O 0.4426(11) 0.0857(5) 0.3001(11)
O14 O 0.4342(9) 0.2912(7) 0.3073(10)
O15 O 0.6780(9) 0.2724(5) 0.4217(10)
O16 O 0.4349(8) 0.1452(5) 0.3995(8)
O17 O 0.3473(8) 0.1268(5) 0.2224(9)
O18 O 0.6507(9) 0.2459(7) 0.2836(11)
O19 O 0.4989(8) 0.1874(5) 0.5123(10)
O20 O 0.3231(10) 0.2709(6) 0.3424(10)
O21 O 0.4594(10) 0.2273(5) 0.2437(12)
O22 O 0.4577(11) 0.1875(9) 0.1806(8)
O23 O 0.50000 0.0187(8) 0.25000
Zn1 Zn 0.50000 -0.17898(9) 0.25000
O24 O 0.9629(7) -0.6432(4) 0.3164(6)
O25 O 0.9061(7) -0.6008(4) 0.2361(7)
O26 O 0.5011(10) -0.2497(9) 0.3404(14)
O27 O 0.5735(9) -0.2081(6) 0.3099(9)
N1 N 0.9086(7) -0.4868(4) 0.5081(7)
N2 N 0.9101(7) -0.4253(4) 0.5617(8)
N3 N 0.8444(7) -0.3606(5) 0.5656(8)
N4 N 0.7567(7) -0.3287(5) 0.5172(7)
C1 C 0.9311(10) -0.6100(6) 0.2968(9)
C2 C 0.9188(9) -0.5774(5) 0.3528(9)
C3 C 0.9034(13) -0.5358(7) 0.3368(10)
H1 H 0.89660 -0.52670 0.29100
C4 C 0.8980(13) -0.5071(6) 0.3885(11)
H2 H 0.88520 -0.47900 0.37570
C5 C 0.9093(10) -0.5160(6) 0.4536(8)
C6 C 0.9283(8) -0.5590(8) 0.4715(10)
H3 H 0.93850 -0.56750 0.51750
C7 C 0.9312(9) -0.5888(6) 0.4177(10)
H4 H 0.94230 -0.61740 0.42880
C8 C 0.9104(8) -0.4437(6) 0.5016(9)
H5 H 0.91170 -0.42900 0.46060
C9 C 0.9119(12) -0.4933(7) 0.5764(13)
H6 H 0.91500 -0.52040 0.59740
C10 C 0.9100(11) -0.4554(6) 0.6106(10)
H7 H 0.90900 -0.45120 0.65720
C11 C 0.9118(10) -0.3801(7) 0.5736(11)
H8 H 0.93500 -0.36620 0.54140
H9 H 0.93460 -0.37440 0.61990
C12 C 0.8153(10) -0.3400(5) 0.5072(9)
H10 H 0.83290 -0.33470 0.46790
C13 C 0.8026(11) -0.3611(7) 0.6099(10)
H11 H 0.81040 -0.37210 0.65460
C14 C 0.7499(12) -0.3436(7) 0.5799(12)
H12 H 0.71270 -0.34160 0.59870
C15 C 0.7139(7) -0.3058(5) 0.4701(8)
C16 C 0.6548(9) -0.2952(6) 0.4871(8)
H13 H 0.64470 -0.30430 0.52890
C17 C 0.6110(7) -0.2710(6) 0.4416(11)
H14 H 0.57150 -0.26390 0.45300
C18 C 0.6262(9) -0.2574(5) 0.3790(9)
C19 C 0.6853(10) -0.2680(6) 0.3620(7)
H15 H 0.69540 -0.25900 0.32020
C20 C 0.7291(7) -0.2922(6) 0.4075(9)
H16 H 0.76860 -0.29930 0.39610
C21 C 0.5627(9) -0.241(1) 0.3419(19)
O1A O 0.5441(10) 0.1491(6) 0.2536(14)
O2A O 0.5436(8) 0.1845(6) 0.1977(8)
O21A O 0.5406(10) 0.2273(5) 0.2563(12)
O22A O 0.5423(11) 0.1875(9) 0.3194(8)
W1A W 0.62120(5) 0.12963(3) 0.18381(6)
W2A W 0.62191(6) 0.24507(4) 0.18482(6)
W3A W 0.38028(6) 0.24537(3) 0.13493(6)
W4A W 0.50240(6) 0.18750(4) 0.07002(5)
W5A W 0.38085(6) 0.12980(4) 0.13615(7)
O3A O 0.5642(8) 0.2899(5) 0.3287(8)
O4A O 0.4422(10) 0.1463(6) 0.0803(14)
O6A O 0.6793(10) 0.0994(7) 0.1516(11)
O7A O 0.3246(9) 0.1003(6) 0.0805(9)
O8A O 0.4380(12) 0.2328(6) 0.0782(12)
O9A O 0.6526(9) 0.1883(7) 0.1862(8)
O10A O 0.5667(10) 0.2289(6) 0.103(1)
O11A O 0.3495(10) 0.1863(7) 0.1247(11)
O12A O 0.5611(10) 0.0855(6) 0.3289(11)
O13A O 0.5574(11) 0.0857(5) 0.1999(11)
O14A O 0.5658(9) 0.2912(7) 0.1927(10)
O15A O 0.3220(9) 0.2724(5) 0.0783(10)
O16A O 0.5651(8) 0.1452(5) 0.1005(8)
O17A O 0.6527(8) 0.1268(5) 0.2776(9)
O18A O 0.3493(9) 0.2459(7) 0.2164(11)
O19A O 0.5011(8) 0.1874(5) -0.0123(10)
O20A O 0.6769(10) 0.2709(6) 0.1576(10)
O24A O 0.0371(7) -0.6432(4) 0.1836(6)
O25A O 0.0939(7) -0.6008(4) 0.2639(7)
O26A O 0.4989(10) -0.2497(9) 0.1596(14)
O27A O 0.4265(9) -0.2081(6) 0.1901(9)
N1A N 0.0914(7) -0.4868(4) -0.0081(7)
N2A N 0.0899(7) -0.4253(4) -0.0617(8)
N3A N 0.1556(7) -0.3606(5) -0.0656(8)
N4A N 0.2433(7) -0.3287(5) -0.0172(7)
C1A C 0.0689(10) -0.6100(6) 0.2032(9)
C2A C 0.0812(9) -0.5774(5) 0.1472(9)
C3A C 0.0966(13) -0.5358(7) 0.1632(10)
H1A H 0.10340 -0.52670 0.20900
C4A C 0.1020(13) -0.5071(6) 0.1115(11)
H2A H 0.11480 -0.47900 0.12430
C5A C 0.0907(10) -0.5160(6) 0.0464(8)
C6A C 0.0717(8) -0.5590(8) 0.0285(10)
H3A H 0.06150 -0.56750 -0.01750
C7A C 0.0688(9) -0.5888(6) 0.0823(10)
H4A H 0.05770 -0.61740 0.07120
C8A C 0.0896(8) -0.4437(6) -0.0016(9)
H5A H 0.08830 -0.42900 0.03940
C9A C 0.0881(12) -0.4933(7) -0.0764(13)
H6A H 0.08500 -0.52040 -0.09740
C10A C 0.0900(11) -0.4554(6) -0.1106(10)
H7A H 0.09100 -0.45120 -0.15720
C11A C 0.0882(10) -0.3801(7) -0.0736(11)
H8A H 0.06500 -0.36620 -0.04140
H9A H 0.06540 -0.37440 -0.11990
C12A C 0.1847(10) -0.3400(5) -0.0072(9)
H10A H 0.16710 -0.33470 0.03210
C13A C 0.1974(11) -0.3611(7) -0.1099(10)
H11A H 0.18960 -0.37210 -0.15460
C14A C 0.2501(12) -0.3436(7) -0.0799(12)
H12A H 0.28730 -0.34160 -0.09870
C15A C 0.2861(7) -0.3058(5) 0.0299(8)
C16A C 0.3452(9) -0.2952(6) 0.0129(8)
H13A H 0.35530 -0.30430 -0.02890
C17A C 0.3890(7) -0.2710(6) 0.0584(11)
H14A H 0.42850 -0.26390 0.04700
C18A C 0.3738(9) -0.2574(5) 0.1210(9)
C19A C 0.3147(10) -0.2680(6) 0.1380(7)
H15A H 0.30460 -0.25900 0.17980
C20A C 0.2709(7) -0.2922(6) 0.0925(9)
H16A H 0.23140 -0.29930 0.10390
C21A C 0.4373(9) -0.241(1) 0.1581(19)
Zn1B Zn 0.00000 -0.67898(9) 0.25000
Zn1B* Zn 1.00000 -0.67898(9) 0.25000
O24B O 0.4629(7) -0.1432(4) 0.3164(6)
O24C O 0.5371(7) -0.1432(4) 0.1836(6)
#END
