
#######################################################################
#
#                 Cambridge Crystallographic Data Centre
#                                CCDC
#
#######################################################################
#
# If this CIF has been generated from an entry in the Cambridge
# Structural Database, then it will include bibliographic, chemical,
# crystal, experimental, refinement or atomic coordinate data resulting
# from the CCDC's data processing and validation procedures.
#
#######################################################################

data_CSD_CIF_ZUBQUK
_audit_creation_date 2015-03-30
_audit_creation_method CSD-ConQuest-V1
_database_code_CSD ZUBQUK
_database_code_depnum_ccdc_archive 'CCDC 1048169'
_chemical_formula_sum 'C67 H123 N17 O68 Si1 W12 Zn1'
_chemical_formula_moiety
;
(C42 H32 N8 O8 Zn1 2+)n,n(O40 Si1 W12 4-),2n(C2 H8 N1 1+),7n(C3 H7 N1 
O1),13n(H2 O1)
;
_journal_coden_Cambridge 222
_journal_volume 44
_journal_year 2015
_journal_page_first 7862
_journal_name_full 'Dalton Trans. '
loop_
_publ_author_name
"Sha Ou"
"Jun-Ping Zheng"
"Guo-Qiang Kong"
"Chuan-De Wu"
_chemical_name_systematic
;
catena-(bis(Dimethylammonium) 
bis(\m~2~-4-(1-((3-(4-carboxylatophenyl)-1H-imidazol-3-ium-1-yl)methyl)-1H-imi
dazol-3-ium-3-yl)benzoate)-zinc 
(\m~12~-silicato)-tetracosakis(\m~2~-oxo)-dodecaoxo-dodeca-tungsten 
dimethylformamide solvate tridecahydrate)
;
_cell_volume  12770.630
_exptl_crystal_colour 'light grey'
_exptl_crystal_density_diffrn 1.933
_exptl_crystal_description 'needle'
_diffrn_ambient_temperature 293
_refine_special_details
;
O1,O2,O21,O22 disordered by symmetry over two configurations with occupancy 
0.50. The SQUEEZE/PLATON program was used to model the dimethylammonium 
cation and solvent molecules.
;
#These two values have been output from a single CSD field.
_refine_ls_R_factor_gt 0.0939
_refine_ls_wR_factor_gt 0.0939
_symmetry_cell_setting monoclinic
_symmetry_space_group_name_H-M 'C 2/c'
_symmetry_Int_Tables_number 15
loop_
_symmetry_equiv_pos_site_id
_symmetry_equiv_pos_as_xyz
1 x,y,z
2 -x,y,1/2-z
3 1/2+x,1/2+y,z
4 1/2-x,1/2+y,1/2-z
5 -x,-y,-z
6 x,-y,-1/2+z
7 -1/2-x,-1/2-y,-z
8 -1/2+x,-1/2-y,-1/2+z
_cell_length_a 21.826(18)
_cell_length_b 30.504(16)
_cell_length_c 19.495(11)
_cell_angle_alpha 90
_cell_angle_beta 100.29(3)
_cell_angle_gamma 90
_cell_formula_units_Z 4
loop_
_atom_type_symbol
_atom_type_radius_bond
C 0.68
H 0.23
N 0.68
O 0.68
Si 1.20
W 1.62
Zn 1.22
loop_
_atom_site_label
_atom_site_type_symbol
_atom_site_fract_x
_atom_site_fract_y
_atom_site_fract_z
W1 W 0.38218(6) 0.13286(3) 0.31348(5)
W2 W 0.38150(6) 0.24870(4) 0.31364(6)
W3 W 0.61503(7) 0.24870(3) 0.36601(5)
W4 W 0.49661(6) 0.19095(3) 0.42919(5)
W5 W 0.61338(7) 0.13372(4) 0.36623(6)
W6 W 0.50000 0.30596(5) 0.25000
W7 W 0.50000 0.07497(4) 0.25000
Si1 Si 0.50000 0.19090(18) 0.25000
O1 O 0.4549(11) 0.1527(7) 0.2458(15)
O2 O 0.4598(10) 0.1883(5) 0.3052(10)
O3 O 0.4380(9) 0.2935(6) 0.1654(9)
O4 O 0.5583(8) 0.1481(6) 0.4256(10)
O5 O 0.50000 0.3631(7) 0.25000
O6 O 0.3252(15) 0.1043(10) 0.3457(15)
O7 O 0.6679(9) 0.1050(5) 0.4220(7)
O8 O 0.5591(8) 0.2353(5) 0.4246(9)
O9 O 0.3531(9) 0.1910(8) 0.3123(8)
O10 O 0.4315(9) 0.2342(6) 0.3972(10)
O11 O 0.6464(8) 0.1908(6) 0.3812(11)
O12 O 0.4385(12) 0.0861(8) 0.1734(10)
O13 O 0.4373(10) 0.0876(6) 0.3031(9)
O14 O 0.4385(12) 0.2955(7) 0.3031(8)
O15 O 0.6705(9) 0.2742(6) 0.4162(9)
O16 O 0.4385(10) 0.1496(7) 0.3968(8)
O17 O 0.3546(13) 0.1306(6) 0.2172(9)
O18 O 0.6500(11) 0.2502(7) 0.2856(11)
O19 O 0.4951(11) 0.1918(5) 0.5138(9)
O20 O 0.3241(8) 0.2745(4) 0.3415(7)
O21 O 0.4556(11) 0.2293(7) 0.2375(14)
O22 O 0.4626(11) 0.1931(8) 0.1780(7)
O23 O 0.50000 0.0218(9) 0.25000
Zn1 Zn 0.50000 -0.18160(9) 0.25000
O24 O 0.9641(6) -0.6445(4) 0.3154(6)
O25 O 0.9081(7) -0.6027(4) 0.2343(6)
O26 O 0.5554(9) -0.2114(6) 0.3221(9)
O27 O 0.6092(14) -0.2408(10) 0.2425(12)
N1 N 0.9115(8) -0.4848(4) 0.5068(6)
N2 N 0.9116(7) -0.4243(4) 0.5595(7)
N3 N 0.8492(7) -0.3578(5) 0.5622(8)
N4 N 0.7646(7) -0.3274(5) 0.5108(8)
C1 C 0.9320(9) -0.6119(6) 0.2915(10)
C2 C 0.9207(6) -0.5794(3) 0.3502(4)
C3 C 0.9041(7) -0.5364(4) 0.3316(4)
H1 H 0.89580 -0.52840 0.28480
C4 C 0.8998(7) -0.5055(3) 0.3829(5)
H2 H 0.88870 -0.47680 0.37050
C5 C 0.9123(7) -0.5175(3) 0.4528(5)
C6 C 0.9289(7) -0.5604(3) 0.4714(4)
H3 H 0.93730 -0.56850 0.51810
C7 C 0.9332(6) -0.5914(3) 0.4201(5)
H4 H 0.94430 -0.62010 0.43250
C8 C 0.9109(9) -0.4438(6) 0.5002(10)
H5 H 0.91010 -0.42920 0.45820
C9 C 0.9102(11) -0.4926(8) 0.5730(12)
H6 H 0.90730 -0.52050 0.59140
C10 C 0.9136(11) -0.4567(6) 0.6098(8)
H7 H 0.91660 -0.45360 0.65770
C11 C 0.9129(10) -0.3782(6) 0.5725(10)
H8 H 0.93710 -0.36410 0.54160
H9 H 0.93380 -0.37300 0.62010
C12 C 0.8187(12) -0.3397(6) 0.5067(10)
H10 H 0.83560 -0.33600 0.46650
C13 C 0.8142(11) -0.3568(6) 0.6097(11)
H11 H 0.82430 -0.36860 0.65420
C14 C 0.7619(13) -0.3361(9) 0.5839(13)
H12 H 0.73000 -0.32850 0.60760
C15 C 0.7195(7) -0.3040(5) 0.4654(7)
C16 C 0.6657(8) -0.2851(5) 0.4809(6)
H13 H 0.65650 -0.28760 0.52560
C17 C 0.6254(7) -0.2625(5) 0.4297(8)
H14 H 0.58940 -0.24980 0.44010
C18 C 0.6390(8) -0.2587(5) 0.3630(7)
C19 C 0.6929(9) -0.2775(6) 0.3475(6)
H15 H 0.70200 -0.27500 0.30280
C20 C 0.7332(7) -0.3002(5) 0.3987(8)
H16 H 0.76920 -0.31280 0.38830
C21 C 0.5992(11) -0.2350(9) 0.303(1)
O1A O 0.5451(11) 0.1527(7) 0.2542(15)
O2A O 0.5402(10) 0.1883(5) 0.1948(10)
O21A O 0.5444(11) 0.2293(7) 0.2625(14)
O22A O 0.5374(11) 0.1931(8) 0.3220(7)
W1A W 0.61782(6) 0.13286(3) 0.18652(5)
W2A W 0.61850(6) 0.24870(4) 0.18636(6)
W3A W 0.38497(7) 0.24870(3) 0.13399(5)
W4A W 0.50339(6) 0.19095(3) 0.07081(5)
W5A W 0.38662(7) 0.13372(4) 0.13377(6)
O3A O 0.5620(9) 0.2935(6) 0.3346(9)
O4A O 0.4417(8) 0.1481(6) 0.0744(10)
O6A O 0.6748(15) 0.1043(10) 0.1543(15)
O7A O 0.3321(9) 0.1050(5) 0.0780(7)
O8A O 0.4409(8) 0.2353(5) 0.0754(9)
O9A O 0.6469(9) 0.1910(8) 0.1877(8)
O10A O 0.5685(9) 0.2342(6) 0.1028(10)
O11A O 0.3536(8) 0.1908(6) 0.1188(11)
O12A O 0.5615(12) 0.0861(8) 0.3266(10)
O13A O 0.5627(10) 0.0876(6) 0.1969(9)
O14A O 0.5615(12) 0.2955(7) 0.1969(8)
O15A O 0.3295(9) 0.2742(6) 0.0838(9)
O16A O 0.5615(10) 0.1496(7) 0.1032(8)
O17A O 0.6454(13) 0.1306(6) 0.2828(9)
O18A O 0.3500(11) 0.2502(7) 0.2144(11)
O19A O 0.5049(11) 0.1918(5) -0.0138(9)
O20A O 0.6759(8) 0.2745(4) 0.1585(7)
O24A O 0.0359(6) -0.6445(4) 0.1846(6)
O25A O 0.0919(7) -0.6027(4) 0.2657(6)
O26A O 0.4446(9) -0.2114(6) 0.1779(9)
O27A O 0.3908(14) -0.2408(10) 0.2575(12)
N1A N 0.0885(8) -0.4848(4) -0.0068(6)
N2A N 0.0884(7) -0.4243(4) -0.0595(7)
N3A N 0.1508(7) -0.3578(5) -0.0622(8)
N4A N 0.2354(7) -0.3274(5) -0.0108(8)
C1A C 0.0680(9) -0.6119(6) 0.2085(10)
C2A C 0.0793(6) -0.5794(3) 0.1498(4)
C3A C 0.0959(7) -0.5364(4) 0.1684(4)
H1A H 0.10420 -0.52840 0.21520
C4A C 0.1002(7) -0.5055(3) 0.1171(5)
H2A H 0.11130 -0.47680 0.12950
C5A C 0.0877(7) -0.5175(3) 0.0472(5)
C6A C 0.0711(7) -0.5604(3) 0.0286(4)
H3A H 0.06270 -0.56850 -0.01810
C7A C 0.0668(6) -0.5914(3) 0.0799(5)
H4A H 0.05570 -0.62010 0.06750
C8A C 0.0891(9) -0.4438(6) -0.0002(10)
H5A H 0.08990 -0.42920 0.04180
C9A C 0.0898(11) -0.4926(8) -0.0730(12)
H6A H 0.09270 -0.52050 -0.09140
C10A C 0.0864(11) -0.4567(6) -0.1098(8)
H7A H 0.08340 -0.45360 -0.15770
C11A C 0.0871(10) -0.3782(6) -0.0725(10)
H8A H 0.06290 -0.36410 -0.04160
H9A H 0.06620 -0.37300 -0.12010
C12A C 0.1813(12) -0.3397(6) -0.0067(10)
H10A H 0.16440 -0.33600 0.03350
C13A C 0.1858(11) -0.3568(6) -0.1097(11)
H11A H 0.17570 -0.36860 -0.15420
C14A C 0.2381(13) -0.3361(9) -0.0839(13)
H12A H 0.27000 -0.32850 -0.10760
C15A C 0.2805(7) -0.3040(5) 0.0346(7)
C16A C 0.3343(8) -0.2851(5) 0.0191(6)
H13A H 0.34350 -0.28760 -0.02560
C17A C 0.3746(7) -0.2625(5) 0.0703(8)
H14A H 0.41060 -0.24980 0.05990
C18A C 0.3610(8) -0.2587(5) 0.1370(7)
C19A C 0.3071(9) -0.2775(6) 0.1525(6)
H15A H 0.29800 -0.27500 0.19720
C20A C 0.2668(7) -0.3002(5) 0.1013(8)
H16A H 0.23080 -0.31280 0.11170
C21A C 0.4008(11) -0.2350(9) 0.197(1)
Zn1B Zn 0.00000 -0.68160(9) 0.25000
Zn1B* Zn 1.00000 -0.68160(9) 0.25000
O24B O 0.4641(6) -0.1445(4) 0.3154(6)
O24C O 0.5359(6) -0.1445(4) 0.1846(6)
#END
