
#######################################################################
#
#                 Cambridge Crystallographic Data Centre
#                                CCDC
#
#######################################################################
#
# If this CIF has been generated from an entry in the Cambridge
# Structural Database, then it will include bibliographic, chemical,
# crystal, experimental, refinement or atomic coordinate data resulting
# from the CCDC's data processing and validation procedures.
#
#######################################################################

data_CSD_CIF_ZUBREV
_audit_creation_date 2015-03-30
_audit_creation_method CSD-ConQuest-V1
_database_code_CSD ZUBREV
_database_code_depnum_ccdc_archive 'CCDC 1048171'
_chemical_formula_sum 'C62 H106 Co1 N16 O59 W12 Zn1'
_chemical_formula_moiety
;
(C42 H32 N8 O8 Zn1 2+)n,n(Co1 O40 W12 6-),4n(C2 H8 N1 1+),4n(C3 H7 N1 
O1),7n(H2 O1)
;
_journal_coden_Cambridge 222
_journal_volume 44
_journal_year 2015
_journal_page_first 7862
_journal_name_full 'Dalton Trans. '
loop_
_publ_author_name
"Sha Ou"
"Jun-Ping Zheng"
"Guo-Qiang Kong"
"Chuan-De Wu"
_chemical_name_systematic
;
catena-(tetrakis(Dimethylammonium) 
bis(\m~2~-4-(1-((3-(4-carboxylatophenyl)-1H-imidazol-3-ium-1-yl)methyl)-1H-imi
dazol-3-ium-3-yl)benzoate)-zinc 
tetrakis(\m~4~-oxo)-tetracosakis(\m~2~-oxo)-dodecaoxo-cobalt-dodeca-tungsten 
dimethylformamide solvate heptahydrate)
;
_cell_volume  12529.049
_exptl_crystal_colour 'blue'
_exptl_crystal_density_diffrn 1.987
_exptl_crystal_description 'needle'
_diffrn_ambient_temperature 293
_refine_special_details
;
O1,O2,O21,O22 disordered by symmetry over two configurations with occupancy 
0.50. The SQUEEZE/PLATON program was used to model the disordered 
dimethylammonium cations and solvent molecules.
;
#These two values have been output from a single CSD field.
_refine_ls_R_factor_gt 0.0881
_refine_ls_wR_factor_gt 0.0881
_symmetry_cell_setting monoclinic
_symmetry_space_group_name_H-M 'C 2/c'
_symmetry_Int_Tables_number 15
loop_
_symmetry_equiv_pos_site_id
_symmetry_equiv_pos_as_xyz
1 x,y,z
2 -x,y,1/2-z
3 1/2+x,1/2+y,z
4 1/2-x,1/2+y,1/2-z
5 -x,-y,-z
6 x,-y,-1/2+z
7 -1/2-x,-1/2-y,-z
8 -1/2+x,-1/2-y,-1/2+z
_cell_length_a 21.018(4)
_cell_length_b 30.814(5)
_cell_length_c 19.639(3)
_cell_angle_alpha 90
_cell_angle_beta 99.919(15)
_cell_angle_gamma 90
_cell_formula_units_Z 4
loop_
_atom_type_symbol
_atom_type_radius_bond
C 0.68
H 0.23
Co 1.26
N 0.68
O 0.68
W 1.62
Zn 1.22
loop_
_atom_site_label
_atom_site_type_symbol
_atom_site_fract_x
_atom_site_fract_y
_atom_site_fract_z
W1 W 0.37882(8) 0.13294(5) 0.31284(7)
W2 W 0.37831(8) 0.24563(7) 0.31247(8)
W3 W 0.61751(8) 0.24667(6) 0.36447(7)
W4 W 0.49507(8) 0.19029(6) 0.42616(6)
W5 W 0.61663(9) 0.13324(6) 0.36321(9)
W6 W 0.50000 0.30241(7) 0.25000
W7 W 0.50000 0.07633(9) 0.25000
Co1 Co 0.50000 0.18961(17) 0.25000
O1 O 0.5478(16) 0.1992(11) 0.3414(8)
O2 O 0.4441(14) 0.1402(8) 0.2448(19)
O3 O 0.4361(12) 0.2898(8) 0.1671(11)
O4 O 0.3459(12) 0.1875(10) 0.3045(12)
O5 O 0.50000 0.3507(14) 0.25000
O6 O 0.3236(12) 0.1071(10) 0.3429(15)
O7 O 0.6702(13) 0.1080(9) 0.4141(12)
O8 O 0.5596(14) 0.2309(10) 0.4259(14)
O9 O 0.3571(14) 0.247(1) 0.2192(14)
O10 O 0.4392(15) 0.2302(11) 0.3975(15)
O11 O 0.6521(13) 0.1874(11) 0.3792(13)
O12 O 0.5600(17) 0.1494(11) 0.4187(16)
O13 O 0.4407(17) 0.0863(12) 0.1756(17)
O14 O 0.4322(12) 0.2927(8) 0.2991(11)
O15 O 0.6728(10) 0.2711(8) 0.4138(12)
O16 O 0.4941(11) 0.1889(8) 0.5082(10)
O17 O 0.4369(12) 0.1502(10) 0.3927(12)
O18 O 0.3425(12) 0.1281(9) 0.2215(11)
O19 O 0.4255(12) 0.0888(8) 0.3120(11)
O20 O 0.3234(11) 0.2721(8) 0.3414(9)
O21 O 0.4447(17) 0.1903(16) 0.3183(17)
O22 O 0.5465(15) 0.2435(7) 0.2657(16)
O23 O 0.50000 0.0254(12) 0.25000
Zn1 Zn 1.00000 -0.32017(15) 0.75000
O24 O 0.5363(11) 0.1449(7) 0.6837(9)
O25 O 0.589(1) 0.1023(6) 0.7647(9)
O26 O 0.9828(16) -0.2547(11) 0.6579(15)
O27 O 0.9248(14) -0.2921(10) 0.6947(14)
N1 N 0.5886(11) -0.0147(8) 0.4922(12)
N2 N 0.5884(8) -0.0743(7) 0.4421(11)
N3 N 0.6532(12) -0.1414(7) 0.4358(10)
N4 N 0.7393(10) -0.1738(7) 0.4830(9)
C1 C 0.5688(13) 0.1117(12) 0.7048(13)
C2 C 0.5775(8) 0.0777(6) 0.6490(7)
C3 C 0.5918(10) 0.0345(6) 0.6655(6)
H1 H 0.59730 0.02540 0.71130
C4 C 0.5978(11) 0.0049(5) 0.6135(10)
H2 H 0.60740 -0.02400 0.62460
C5 C 0.5896(10) 0.0185(5) 0.5451(8)
C6 C 0.5753(8) 0.0617(6) 0.5286(6)
H3 H 0.56980 0.07080 0.48280
C7 C 0.5692(8) 0.0913(4) 0.5805(8)
H4 H 0.55970 0.12010 0.56950
C8 C 0.5893(11) -0.0543(10) 0.5022(12)
H5 H 0.59030 -0.06790 0.54470
C9 C 0.5844(15) -0.0060(8) 0.4231(14)
H6 H 0.58210 0.02130 0.40250
C10 C 0.5844(13) -0.0427(11) 0.3927(13)
H7 H 0.58210 -0.04710 0.34550
C11 C 0.5864(14) -0.1178(11) 0.4274(14)
H8 H 0.56460 -0.12170 0.38010
H9 H 0.56050 -0.13200 0.45720
C12 C 0.6846(12) -0.1598(9) 0.4929(13)
H10 H 0.66890 -0.16230 0.53420
C13 C 0.6909(14) -0.1388(9) 0.3928(13)
H11 H 0.68020 -0.12720 0.34860
C14 C 0.7496(14) -0.1555(10) 0.4202(13)
H12 H 0.78760 -0.15490 0.40190
C15 C 0.7715(10) -0.211(1) 0.5886(14)
H13 H 0.73040 -0.20740 0.59920
C16 C 0.7867(10) -0.1927(8) 0.5287(11)
C17 C 0.8482(12) -0.1980(8) 0.5129(9)
H14 H 0.85840 -0.18580 0.47280
C18 C 0.8945(10) -0.2216(9) 0.5569(13)
H15 H 0.93560 -0.22520 0.54630
C19 C 0.8792(13) -0.2399(8) 0.6168(12)
C20 C 0.8178(15) -0.2346(9) 0.6326(12)
H16 H 0.80760 -0.24680 0.67270
C21 C 0.9277(15) -0.2680(13) 0.660(2)
W1A W 0.62118(8) 0.13294(5) 0.18716(7)
W2A W 0.62169(8) 0.24563(7) 0.18753(8)
W3A W 0.38249(8) 0.24667(6) 0.13553(7)
W4A W 0.50493(8) 0.19029(6) 0.07384(6)
W5A W 0.38337(9) 0.13324(6) 0.13679(9)
O1A O 0.4522(16) 0.1992(11) 0.1586(8)
O2A O 0.5559(14) 0.1402(8) 0.2552(19)
O3A O 0.5639(12) 0.2898(8) 0.3329(11)
O4A O 0.6541(12) 0.1875(10) 0.1955(12)
O6A O 0.6764(12) 0.1071(10) 0.1571(15)
O7A O 0.3298(13) 0.1080(9) 0.0859(12)
O8A O 0.4404(14) 0.2309(10) 0.0741(14)
O9A O 0.6429(14) 0.247(1) 0.2808(14)
O10A O 0.5608(15) 0.2302(11) 0.1025(15)
O11A O 0.3479(13) 0.1874(11) 0.1208(13)
O12A O 0.4400(17) 0.1494(11) 0.0813(16)
O13A O 0.5593(17) 0.0863(12) 0.3244(17)
O14A O 0.5678(12) 0.2927(8) 0.2009(11)
O15A O 0.3272(10) 0.2711(8) 0.0862(12)
O16A O 0.5059(11) 0.1889(8) -0.0082(10)
O17A O 0.5631(12) 0.1502(10) 0.1073(12)
O18A O 0.6575(12) 0.1281(9) 0.2785(11)
O19A O 0.5745(12) 0.0888(8) 0.1880(11)
O20A O 0.6766(11) 0.2721(8) 0.1586(9)
O21A O 0.5553(17) 0.1903(16) 0.1817(17)
O22A O 0.4535(15) 0.2435(7) 0.2343(16)
O24A O 1.4637(11) 0.1449(7) 0.8163(9)
O25A O 1.411(1) 0.1023(6) 0.7353(9)
O26A O 1.0172(16) -0.2547(11) 0.8421(15)
O27A O 1.0752(14) -0.2921(10) 0.8053(14)
N1A N 1.4114(11) -0.0147(8) 1.0078(12)
N2A N 1.4116(8) -0.0743(7) 1.0579(11)
N3A N 1.3468(12) -0.1414(7) 1.0642(10)
N4A N 1.2607(10) -0.1738(7) 1.0170(9)
C1A C 1.4312(13) 0.1117(12) 0.7952(13)
C2A C 1.4225(8) 0.0777(6) 0.8510(7)
C3A C 1.4082(10) 0.0345(6) 0.8345(6)
H1A H 1.40270 0.02540 0.78870
C4A C 1.4022(11) 0.0049(5) 0.8865(10)
H2A H 1.39260 -0.02400 0.87540
C5A C 1.4104(10) 0.0185(5) 0.9549(8)
C6A C 1.4247(8) 0.0617(6) 0.9714(6)
H3A H 1.43020 0.07080 1.01720
C7A C 1.4308(8) 0.0913(4) 0.9195(8)
H4A H 1.44030 0.12010 0.93050
C8A C 1.4107(11) -0.0543(10) 0.9978(12)
H5A H 1.40970 -0.06790 0.95530
C9A C 1.4156(15) -0.0060(8) 1.0769(14)
H6A H 1.41790 0.02130 1.09750
C10A C 1.4156(13) -0.0427(11) 1.1073(13)
H7A H 1.41790 -0.04710 1.15450
C11A C 1.4136(14) -0.1178(11) 1.0726(14)
H8A H 1.43540 -0.12170 1.11990
H9A H 1.43950 -0.13200 1.04280
C12A C 1.3154(12) -0.1598(9) 1.0071(13)
H10A H 1.33110 -0.16230 0.96580
C13A C 1.3091(14) -0.1388(9) 1.1072(13)
H11A H 1.31980 -0.12720 1.15140
C14A C 1.2504(14) -0.1555(10) 1.0798(13)
H12A H 1.21240 -0.15490 1.09810
C15A C 1.2285(10) -0.211(1) 0.9114(14)
H13A H 1.26960 -0.20740 0.90080
C16A C 1.2133(10) -0.1927(8) 0.9713(11)
C17A C 1.1518(12) -0.1980(8) 0.9871(9)
H14A H 1.14160 -0.18580 1.02720
C18A C 1.1055(10) -0.2216(9) 0.9431(13)
H15A H 1.06440 -0.22520 0.95370
C19A C 1.1208(13) -0.2399(8) 0.8832(12)
C20A C 1.1822(15) -0.2346(9) 0.8674(12)
H16A H 1.19240 -0.24680 0.82730
C21A C 1.0723(15) -0.2680(13) 0.840(2)
Zn1B Zn 0.50000 0.17983(15) 0.75000
Zn1B* Zn 1.50000 0.17983(15) 0.75000
O24B O 1.0363(11) -0.3551(7) 0.6837(9)
O24C O 0.9637(11) -0.3551(7) 0.8163(9)
#END
