
#######################################################################
#
#                 Cambridge Crystallographic Data Centre
#                                CCDC
#
#######################################################################
#
# If this CIF has been generated from an entry in the Cambridge
# Structural Database, then it will include bibliographic, chemical,
# crystal, experimental, refinement or atomic coordinate data resulting
# from the CCDC's data processing and validation procedures.
#
#######################################################################

data_CSD_CIF_ZUBRAR
_audit_creation_date 2015-03-30
_audit_creation_method CSD-ConQuest-V1
_database_code_CSD ZUBRAR
_database_code_depnum_ccdc_archive 'CCDC 1048170'
_chemical_formula_sum 'C60 H92 B1 N15 O56 W12 Zn1'
_chemical_formula_moiety
;
(C42 H32 N8 O8 Zn1 2+)n,n(B1 O40 W12 5-),3n(C2 H8 N1 1+),4n(C3 H7 N1 
O1),4n(H2 O1)
;
_journal_coden_Cambridge 222
_journal_volume 44
_journal_year 2015
_journal_page_first 7862
_journal_name_full 'Dalton Trans. '
loop_
_publ_author_name
"Sha Ou"
"Jun-Ping Zheng"
"Guo-Qiang Kong"
"Chuan-De Wu"
_chemical_name_systematic
;
catena-(tris(Dimethylammonium) 
bis(\m~2~-4-(1-((3-(4-carboxylatophenyl)-1H-imidazol-3-ium-1-yl)methyl)-1H-imi
dazol-3-ium-3-yl)benzoate)-zinc 
(\m~12~-borato)-tetracosakis(\m~2~-oxo)-dodecaoxo-dodeca-tungsten 
dimethylformamide solvate tetrahydrate)
;
_cell_volume  12694.604
_exptl_crystal_colour 'colorless'
_exptl_crystal_density_diffrn 1.935
_exptl_crystal_description 'needle'
_diffrn_ambient_temperature 293
_refine_special_details
;
O1,O2,O21,O22 disordered by symmetry over two configurations with occupancy 
0.50. The SQUEEZE/PLATON program was used to model the disordered 
dimethylammonium cations and solvent molecules.
;
#These two values have been output from a single CSD field.
_refine_ls_R_factor_gt 0.0843
_refine_ls_wR_factor_gt 0.0843
_symmetry_cell_setting monoclinic
_symmetry_space_group_name_H-M 'C 2/c'
_symmetry_Int_Tables_number 15
loop_
_symmetry_equiv_pos_site_id
_symmetry_equiv_pos_as_xyz
1 x,y,z
2 -x,y,1/2-z
3 1/2+x,1/2+y,z
4 1/2-x,1/2+y,1/2-z
5 -x,-y,-z
6 x,-y,-1/2+z
7 -1/2-x,-1/2-y,-z
8 -1/2+x,-1/2-y,-1/2+z
_cell_length_a 20.949(12)
_cell_length_b 31.1225(14)
_cell_length_c 19.7567(14)
_cell_angle_alpha 90
_cell_angle_beta 99.761(15)
_cell_angle_gamma 90
_cell_formula_units_Z 4
loop_
_atom_type_symbol
_atom_type_radius_bond
C 0.68
H 0.23
B 0.83
N 0.68
O 0.68
W 1.62
Zn 1.22
loop_
_atom_site_label
_atom_site_type_symbol
_atom_site_fract_x
_atom_site_fract_y
_atom_site_fract_z
W1 W 0.38061(6) 0.13044(3) 0.31526(5)
W2 W 0.37964(7) 0.24281(4) 0.31502(6)
W3 W 0.61828(6) 0.24335(4) 0.36141(6)
W4 W 0.49765(6) 0.18720(4) 0.42588(6)
W5 W 0.61798(6) 0.13050(4) 0.36059(7)
W6 W 0.50000 0.29916(4) 0.25000
W7 W 0.50000 0.07367(4) 0.25000
B1 B 0.50000 0.1873(5) 0.25000
O1 O 0.4583(10) 0.1479(6) 0.2499(12)
O2 O 0.4549(9) 0.1848(6) 0.3017(9)
O3 O 0.4365(9) 0.2860(5) 0.1698(9)
O4 O 0.5626(13) 0.1466(7) 0.4102(13)
O5 O 0.50000 0.3502(10) 0.25000
O6 O 0.3303(11) 0.1024(7) 0.3481(10)
O7 O 0.6732(9) 0.1033(5) 0.4137(9)
O8 O 0.5620(9) 0.2297(5) 0.4177(9)
O9 O 0.3467(10) 0.1854(7) 0.3131(8)
O10 O 0.4406(11) 0.2283(5) 0.3989(9)
O11 O 0.6512(11) 0.1849(6) 0.3734(10)
O12 O 0.4371(11) 0.0868(6) 0.1701(10)
O13 O 0.4373(11) 0.0859(5) 0.3042(8)
O14 O 0.4368(10) 0.2877(6) 0.3034(9)
O15 O 0.6741(10) 0.2695(5) 0.4125(10)
O16 O 0.4368(10) 0.1453(5) 0.3994(9)
O17 O 0.3499(10) 0.1287(5) 0.2212(10)
O18 O 0.6475(10) 0.2440(6) 0.2827(10)
O19 O 0.4960(9) 0.1864(5) 0.5062(10)
O20 O 0.3256(11) 0.2702(4) 0.3454(9)
O21 O 0.4583(11) 0.2270(6) 0.2437(11)
O22 O 0.5385(14) 0.1857(9) 0.3220(8)
O23 O 0.50000 0.0221(8) 0.25000
Zn1 Zn 0.50000 -0.17837(10) 0.25000
O24 O 0.9612(7) -0.6422(4) 0.3157(6)
O25 O 0.9064(8) -0.6003(4) 0.2344(7)
O26 O 0.5067(12) -0.2443(6) 0.3383(10)
O27 O 0.5736(10) -0.2060(6) 0.305(1)
N1 N 0.9064(9) -0.4859(5) 0.5079(9)
N2 N 0.9055(8) -0.4250(4) 0.5594(10)
N3 N 0.8420(9) -0.3608(5) 0.5656(10)
N4 N 0.7551(9) -0.3293(5) 0.5195(9)
C1 C 0.9307(12) -0.6092(7) 0.2968(13)
C2 C 0.9203(7) -0.5774(4) 0.3532(6)
C3 C 0.9029(8) -0.5354(5) 0.3346(5)
H1 H 0.89560 -0.52740 0.28860
C4 C 0.8966(8) -0.5052(3) 0.3850(7)
H2 H 0.88500 -0.47710 0.37260
C5 C 0.9076(8) -0.5171(4) 0.4538(6)
C6 C 0.9249(7) -0.5591(4) 0.4723(5)
H3 H 0.93230 -0.56700 0.51840
C7 C 0.9313(7) -0.5893(3) 0.4220(7)
H4 H 0.94290 -0.61740 0.43440
C8 C 0.9075(10) -0.4453(7) 0.5000(11)
H5 H 0.90950 -0.43160 0.45860
C9 C 0.9100(13) -0.4941(7) 0.5769(11)
H6 H 0.91520 -0.52100 0.59760
C10 C 0.9045(13) -0.4562(8) 0.6097(11)
H7 H 0.90100 -0.45210 0.65560
C11 C 0.9089(12) -0.3789(7) 0.5731(12)
H8 H 0.93250 -0.36480 0.54110
H9 H 0.93190 -0.37370 0.61930
C12 C 0.8137(13) -0.3391(7) 0.5103(12)
H10 H 0.83220 -0.33220 0.47210
C13 C 0.8016(16) -0.3612(8) 0.6112(12)
H11 H 0.81060 -0.37220 0.65550
C14 C 0.7488(14) -0.3438(8) 0.5834(12)
H12 H 0.71180 -0.34140 0.60330
C15 C 0.7114(10) -0.3029(6) 0.4707(10)
C16 C 0.6490(11) -0.2964(6) 0.4836(8)
H13 H 0.63690 -0.30740 0.52330
C17 C 0.6046(8) -0.2733(6) 0.4373(12)
H14 H 0.56280 -0.26890 0.44600
C18 C 0.6226(11) -0.2567(6) 0.378(1)
C19 C 0.6851(12) -0.2632(7) 0.3650(9)
H15 H 0.69710 -0.25210 0.32540
C20 C 0.7295(9) -0.2863(7) 0.4114(12)
H16 H 0.77130 -0.29070 0.40270
C21 C 0.5701(14) -0.2315(9) 0.3346(16)
O1A O 0.5417(10) 0.1479(6) 0.2501(12)
O2A O 0.5451(9) 0.1848(6) 0.1983(9)
O21A O 0.5417(11) 0.2270(6) 0.2563(11)
O22A O 0.4615(14) 0.1857(9) 0.1780(8)
W1A W 0.61939(6) 0.13044(3) 0.18474(5)
W2A W 0.62036(7) 0.24281(4) 0.18498(6)
W3A W 0.38172(6) 0.24335(4) 0.13859(6)
W4A W 0.50235(6) 0.18720(4) 0.07412(6)
W5A W 0.38202(6) 0.13050(4) 0.13941(7)
O3A O 0.5635(9) 0.2860(5) 0.3302(9)
O4A O 0.4374(13) 0.1466(7) 0.0898(13)
O6A O 0.6697(11) 0.1024(7) 0.1519(10)
O7A O 0.3268(9) 0.1033(5) 0.0863(9)
O8A O 0.4380(9) 0.2297(5) 0.0823(9)
O9A O 0.6533(10) 0.1854(7) 0.1869(8)
O10A O 0.5594(11) 0.2283(5) 0.1011(9)
O11A O 0.3488(11) 0.1849(6) 0.1266(10)
O12A O 0.5629(11) 0.0868(6) 0.3299(10)
O13A O 0.5627(11) 0.0859(5) 0.1958(8)
O14A O 0.5632(10) 0.2877(6) 0.1966(9)
O15A O 0.3259(10) 0.2695(5) 0.0875(10)
O16A O 0.5632(10) 0.1453(5) 0.1006(9)
O17A O 0.6501(10) 0.1287(5) 0.2788(10)
O18A O 0.3525(10) 0.2440(6) 0.2173(10)
O19A O 0.5040(9) 0.1864(5) -0.0062(10)
O20A O 0.6744(11) 0.2702(4) 0.1546(9)
O24A O 0.0388(7) -0.6422(4) 0.1843(6)
O25A O 0.0936(8) -0.6003(4) 0.2656(7)
O26A O 0.4933(12) -0.2443(6) 0.1617(10)
O27A O 0.4264(10) -0.2060(6) 0.195(1)
N1A N 0.0936(9) -0.4859(5) -0.0079(9)
N2A N 0.0945(8) -0.4250(4) -0.0594(10)
N3A N 0.1580(9) -0.3608(5) -0.0656(10)
N4A N 0.2449(9) -0.3293(5) -0.0195(9)
C1A C 0.0693(12) -0.6092(7) 0.2032(13)
C2A C 0.0797(7) -0.5774(4) 0.1468(6)
C3A C 0.0971(8) -0.5354(5) 0.1654(5)
H1A H 0.10440 -0.52740 0.21140
C4A C 0.1034(8) -0.5052(3) 0.1150(7)
H2A H 0.11500 -0.47710 0.12740
C5A C 0.0924(8) -0.5171(4) 0.0462(6)
C6A C 0.0751(7) -0.5591(4) 0.0277(5)
H3A H 0.06770 -0.56700 -0.01840
C7A C 0.0687(7) -0.5893(3) 0.0780(7)
H4A H 0.05710 -0.61740 0.06560
C8A C 0.0925(10) -0.4453(7) 0.0000(11)
H5A H 0.09050 -0.43160 0.04140
C9A C 0.0900(13) -0.4941(7) -0.0769(11)
H6A H 0.08480 -0.52100 -0.09760
C10A C 0.0955(13) -0.4562(8) -0.1097(11)
H7A H 0.09900 -0.45210 -0.15560
C11A C 0.0911(12) -0.3789(7) -0.0731(12)
H8A H 0.06750 -0.36480 -0.04110
H9A H 0.06810 -0.37370 -0.11930
C12A C 0.1863(13) -0.3391(7) -0.0103(12)
H10A H 0.16780 -0.33220 0.02790
C13A C 0.1984(16) -0.3612(8) -0.1112(12)
H11A H 0.18940 -0.37220 -0.15550
C14A C 0.2512(14) -0.3438(8) -0.0834(12)
H12A H 0.28820 -0.34140 -0.10330
C15A C 0.2886(10) -0.3029(6) 0.0293(10)
C16A C 0.3510(11) -0.2964(6) 0.0164(8)
H13A H 0.36310 -0.30740 -0.02330
C17A C 0.3954(8) -0.2733(6) 0.0627(12)
H14A H 0.43720 -0.26890 0.05400
C18A C 0.3774(11) -0.2567(6) 0.122(1)
C19A C 0.3149(12) -0.2632(7) 0.1350(9)
H15A H 0.30290 -0.25210 0.17460
C20A C 0.2705(9) -0.2863(7) 0.0886(12)
H16A H 0.22870 -0.29070 0.09730
C21A C 0.4299(14) -0.2315(9) 0.1654(16)
Zn1B Zn 0.00000 -0.67837(10) 0.25000
Zn1B* Zn 1.00000 -0.67837(10) 0.25000
O24B O 0.4612(7) -0.1422(4) 0.3157(6)
O24C O 0.5388(7) -0.1422(4) 0.1843(6)
#END
