
#######################################################################
#
#                 Cambridge Crystallographic Data Centre
#                                CCDC
#
#######################################################################
#
# If this CIF has been generated from an entry in the Cambridge
# Structural Database, then it will include bibliographic, chemical,
# crystal, experimental, refinement or atomic coordinate data resulting
# from the CCDC's data processing and validation procedures.
#
#######################################################################

data_CSD_CIF_ZUCCUX
_audit_creation_date 2015-03-30
_audit_creation_method CSD-ConQuest-V1
_database_code_CSD ZUCCUX
_database_code_depnum_ccdc_archive 'CCDC 995665'
_chemical_formula_sum 'C45 H46 Cl6 F3 K1 O7 P1 Ta3'
_chemical_formula_moiety
;
(C21 H26 Cl6 F3 K1 O7 Ta3 1-)n,n(C24 H20 P1 1+)
;
_journal_coden_Cambridge 1133
_journal_volume 26
_journal_year 2015
_journal_page_first 223
_journal_name_full 'J.Cluster Sci. '
loop_
_publ_author_name
"Tao Xie"
"A.Friedrich"
"S.Lochbrunner"
"M.Kockerling"
_chemical_name_systematic
;
catena-[tetraphenylphosphonium 
(\m-aqua)-hexakis(\m-chloro)-tris(4-fluorophenolato)-tris(methanol)-potassium-
tri-tantalum]
;
_cell_volume   2593.399
_exptl_crystal_colour 'dark brown'
_exptl_crystal_density_diffrn 2.025
_exptl_crystal_description 'block'
_diffrn_ambient_temperature 173
#These two values have been output from a single CSD field.
_refine_ls_R_factor_gt 0.0261
_refine_ls_wR_factor_gt 0.0261
_symmetry_cell_setting triclinic
_symmetry_space_group_name_H-M 'P -1'
_symmetry_Int_Tables_number 2
loop_
_symmetry_equiv_pos_site_id
_symmetry_equiv_pos_as_xyz
1 x,y,z
2 -x,-y,-z
_cell_length_a 12.3159(3)
_cell_length_b 14.5013(3)
_cell_length_c 15.7871(4)
_cell_angle_alpha 70.169(1)
_cell_angle_beta 88.002(1)
_cell_angle_gamma 78.097(1)
_cell_formula_units_Z 2
loop_
_atom_type_symbol
_atom_type_radius_bond
C 0.68
H 0.23
Cl 0.99
F 0.64
K 2.03
O 0.68
P 1.05
Ta 1.70
loop_
_atom_site_label
_atom_site_type_symbol
_atom_site_fract_x
_atom_site_fract_y
_atom_site_fract_z
Ta1 Ta 0.415894(9) 0.141777(8) 0.490042(8)
Ta2 Ta 0.623583(8) 0.013883(8) 0.574852(7)
Ta3 Ta 0.579708(9) 0.058759(8) 0.384785(8)
Cl1 Cl 0.74531(6) 0.08606(5) 0.45139(5)
Cl2 Cl 0.49629(6) 0.23800(5) 0.35201(5)
Cl3 Cl 0.54868(6) 0.18528(5) 0.57595(5)
Cl4 Cl 0.25305(6) 0.15467(5) 0.39483(5)
Cl5 Cl 0.55227(5) -0.05220(5) 0.72653(5)
Cl6 Cl 0.30570(6) 0.09767(6) 0.62618(5)
K1 K 0.94081(6) -0.11075(6) 0.46368(5)
O1 O 0.32114(18) 0.28650(16) 0.48518(16)
O2 O 0.75826(16) 0.03131(16) 0.64916(14)
O3 O 0.66902(18) 0.11919(18) 0.26592(15)
O4 O 1.03329(18) 0.05776(18) 0.38845(16)
H1 H 0.98860 0.07470 0.34340
H2 H 1.09830 0.04060 0.37150
O5 O 0.8872(2) 0.0345(3) 0.2735(2)
H3 H 0.86380 0.09550 0.24440
O6 O 0.8958(2) -0.2862(2) 0.4655(3)
H4 H 0.86390 -0.32300 0.50740
O7 O 1.1413(2) -0.2003(2) 0.4343(2)
H5 H 1.17700 -0.16680 0.39320
F1 F 0.3158(5) 0.6652(2) 0.2498(3)
F2 F 0.8001(2) 0.01097(19) 0.99992(15)
F3 F 0.5189(3) 0.3670(3) -0.0743(2)
C1 C 0.3208(3) 0.3800(2) 0.4284(2)
C2 C 0.2257(4) 0.4358(3) 0.3752(3)
H6 H 0.16190 0.40750 0.37930
C3 C 0.2236(6) 0.5327(4) 0.3163(3)
H7 H 0.15830 0.57140 0.28120
C4 C 0.3167(7) 0.5708(3) 0.3099(4)
C5 C 0.4104(6) 0.5200(4) 0.3611(5)
H8 H 0.47350 0.54950 0.35600
C6 C 0.4122(4) 0.4240(3) 0.4212(4)
H9 H 0.47710 0.38790 0.45800
C7 C 0.7662(2) 0.0255(2) 0.7364(2)
C8 C 0.7243(3) 0.1089(2) 0.7618(2)
H10 H 0.68830 0.16980 0.71790
C9 C 0.7346(3) 0.1039(3) 0.8505(2)
H11 H 0.70470 0.16040 0.86780
C10 C 0.7884(3) 0.0163(3) 0.9128(2)
C11 C 0.8328(3) -0.0666(3) 0.8897(2)
H12 H 0.87130 -0.12620 0.93380
C12 C 0.8205(3) -0.0620(2) 0.8014(2)
H13 H 0.84950 -0.11950 0.78520
C13 C 0.6331(3) 0.1795(3) 0.1820(2)
C14 C 0.6136(3) 0.2834(3) 0.1586(3)
H14 H 0.62650 0.31170 0.20260
C15 C 0.5757(4) 0.3463(4) 0.0727(3)
H15 H 0.56200 0.41700 0.05770
C16 C 0.5585(4) 0.3044(5) 0.0097(3)
C17 C 0.5782(4) 0.2038(5) 0.0291(3)
H16 H 0.56650 0.17660 -0.01600
C18 C 0.6157(3) 0.1409(3) 0.1154(3)
H17 H 0.62970 0.07040 0.12920
C19 C 0.9096(4) -0.0191(4) 0.2134(3)
H18 H 0.89260 0.02720 0.15150
H19 H 0.86370 -0.06970 0.22700
H20 H 0.98830 -0.05220 0.21980
C20 C 0.9215(6) -0.3302(7) 0.3991(6)
H21 H 0.89600 -0.39360 0.41680
H22 H 1.00200 -0.34290 0.39210
H23 H 0.88450 -0.28480 0.34170
C21 C 1.2051(5) -0.2972(4) 0.4747(4)
H24 H 1.27640 -0.30320 0.44530
H25 H 1.16520 -0.34640 0.46810
H26 H 1.21830 -0.30950 0.53880
P1 P 0.82334(7) 0.62075(6) 0.08966(6)
C22 C 0.8709(3) 0.4984(3) 0.1702(2)
C23 C 0.9837(4) 0.4603(3) 0.1903(3)
H27 H 1.03590 0.50060 0.16330
C24 C 1.0203(5) 0.3639(4) 0.2496(3)
H28 H 1.09760 0.33800 0.26270
C25 C 0.9456(6) 0.3060(4) 0.2893(4)
H29 H 0.97140 0.24010 0.33040
C26 C 0.8332(5) 0.3419(4) 0.2705(3)
H30 H 0.78200 0.30090 0.29820
C27 C 0.7950(4) 0.4389(3) 0.2105(3)
H31 H 0.71770 0.46420 0.19730
C28 C 0.7658(3) 0.6096(2) -0.0085(2)
C29 C 0.7267(3) 0.6944(3) -0.0829(3)
H32 H 0.72810 0.75890 -0.08100
C30 C 0.6861(3) 0.6853(3) -0.1588(3)
H33 H 0.65950 0.74380 -0.20910
C31 C 0.6834(3) 0.5924(3) -0.1631(2)
H34 H 0.65440 0.58670 -0.21570
C32 C 0.7230(3) 0.5081(3) -0.0906(3)
H35 H 0.72280 0.44380 -0.09370
C33 C 0.7633(3) 0.5159(3) -0.0130(2)
H36 H 0.78930 0.45720 0.03720
C34 C 0.9388(3) 0.6810(2) 0.0565(2)
C35 C 0.9925(3) 0.6828(3) -0.0226(3)
H37 H 0.96860 0.65130 -0.06030
C36 C 1.0813(3) 0.7310(3) -0.0467(3)
H38 H 1.11730 0.73350 -0.10140
C37 C 1.1170(3) 0.7751(3) 0.0091(4)
H39 H 1.17850 0.80690 -0.00690
C38 C 1.0641(4) 0.7733(4) 0.0875(4)
H40 H 1.08930 0.80390 0.12550
C39 C 0.9742(4) 0.7271(3) 0.1117(3)
H41 H 0.93710 0.72700 0.16550
C40 C 0.7260(3) 0.6959(3) 0.1396(2)
C41 C 0.6781(5) 0.7926(4) 0.0883(3)
H42 H 0.69500 0.81800 0.02660
C42 C 0.6047(4) 0.8540(4) 0.1261(4)
H43 H 0.57030 0.92010 0.08990
C43 C 0.5829(4) 0.8188(4) 0.2142(4)
H44 H 0.53270 0.86050 0.23970
C44 C 0.6323(5) 0.7233(5) 0.2679(4)
H45 H 0.61810 0.69980 0.33030
C45 C 0.7034(5) 0.6616(4) 0.2297(3)
H46 H 0.73670 0.59520 0.26610
Ta1A Ta 0.584106(9) -0.141777(8) 0.509958(8)
Ta2A Ta 0.376417(8) -0.013883(8) 0.425148(7)
Ta3A Ta 0.420292(9) -0.058759(8) 0.615215(8)
Cl4A Cl 0.74695(6) -0.15467(5) 0.60517(5)
Cl5A Cl 0.44773(5) 0.05220(5) 0.27347(5)
Cl6A Cl 0.69430(6) -0.09767(6) 0.37382(5)
K1A K 0.05919(6) 0.11075(6) 0.53632(5)
K1A* K 1.05919(6) 0.11075(6) 0.53632(5)
O4A O 0.96671(18) -0.05776(18) 0.61155(16)
#END
