
#######################################################################
#
#                 Cambridge Crystallographic Data Centre
#                                CCDC
#
#######################################################################
#
# If this CIF has been generated from an entry in the Cambridge
# Structural Database, then it will include bibliographic, chemical,
# crystal, experimental, refinement or atomic coordinate data resulting
# from the CCDC's data processing and validation procedures.
#
#######################################################################

data_CSD_CIF_ZUCDAE
_audit_creation_date 2015-03-30
_audit_creation_method CSD-ConQuest-V1
_database_code_CSD ZUCDAE
_database_code_depnum_ccdc_archive 'CCDC 995624'
_chemical_formula_sum 'C45 H46 Cl6 F3 K1 Nb3 O7 P1'
_chemical_formula_moiety
;
(C21 H26 Cl6 F3 K1 Nb3 O7 1-)n,n(C24 H20 P1 1+)
;
_journal_coden_Cambridge 1133
_journal_volume 26
_journal_year 2015
_journal_page_first 223
_journal_name_full 'J.Cluster Sci. '
loop_
_publ_author_name
"Tao Xie"
"A.Friedrich"
"S.Lochbrunner"
"M.Kockerling"
_chemical_name_systematic
;
catena-[tetraphenylphosphonium 
(\m-aqua)-hexakis(\m-chloro)-tris(4-fluorophenolato)-tris(methanol)-tri-niobiu
m-potassium]
;
_cell_volume   2588.465
_exptl_crystal_colour 'dark green'
_exptl_crystal_density_diffrn 1.69
_exptl_crystal_description 'block'
_diffrn_ambient_temperature 173
#These two values have been output from a single CSD field.
_refine_ls_R_factor_gt 0.0406
_refine_ls_wR_factor_gt 0.0406
_symmetry_cell_setting triclinic
_symmetry_space_group_name_H-M 'P -1'
_symmetry_Int_Tables_number 2
loop_
_symmetry_equiv_pos_site_id
_symmetry_equiv_pos_as_xyz
1 x,y,z
2 -x,-y,-z
_cell_length_a 12.3048(4)
_cell_length_b 14.4303(5)
_cell_length_c 15.8210(5)
_cell_angle_alpha 70.314(2)
_cell_angle_beta 88.231(2)
_cell_angle_gamma 78.354(2)
_cell_formula_units_Z 2
loop_
_atom_type_symbol
_atom_type_radius_bond
C 0.68
H 0.23
Cl 0.99
F 0.64
K 2.03
Nb 1.64
O 0.68
P 1.05
loop_
_atom_site_label
_atom_site_type_symbol
_atom_site_fract_x
_atom_site_fract_y
_atom_site_fract_z
Nb1 Nb 0.581309(19) 0.559796(18) 0.383268(16)
Nb2 Nb 0.374324(19) 0.485369(18) 0.423698(16)
Nb3 Nb 0.584852(19) 0.354583(18) 0.510710(16)
Cl1 Cl 0.45015(6) 0.31296(5) 0.42457(5)
Cl2 Cl 0.25356(5) 0.65516(5) 0.39389(5)
Cl3 Cl 0.69496(6) 0.40082(5) 0.37493(5)
Cl4 Cl 0.49744(6) 0.73880(5) 0.35182(5)
Cl5 Cl 0.74628(5) 0.58579(5) 0.45244(4)
Cl6 Cl 0.44825(5) 0.55144(5) 0.27384(4)
K1 K 0.05678(6) 0.61356(6) 0.53447(5)
O1 O 0.67094(17) 0.62094(16) 0.26422(14)
O2 O 0.23942(16) 0.46727(15) 0.34877(13)
O3 O 0.67852(18) 0.20828(16) 0.51677(15)
O4 O -0.03277(18) 0.44315(17) 0.61204(15)
H1 H 0.00930 0.44290 0.65380
H2 H -0.09720 0.46890 0.62410
O5 O 0.1134(2) 0.4664(2) 0.72722(19)
H3 H 0.11910 0.40510 0.75710
O6 O 0.1034(2) 0.7903(2) 0.5304(2)
H4 H 0.16660 0.79790 0.51140
O7 O -0.1419(2) 0.7030(2) 0.5687(2)
H5 H -0.18420 0.66240 0.58980
F1 F 0.5135(3) 0.8672(3) -0.07404(19)
F2 F 0.2037(2) 0.49196(19) -0.00346(15)
F3 F 0.6773(5) -0.1675(2) 0.7563(3)
C1 C 0.6328(2) 0.6810(2) 0.1813(2)
C2 C 0.6115(3) 0.7857(3) 0.1578(2)
H6 H 0.62390 0.81480 0.20130
C3 C 0.5726(4) 0.8477(4) 0.0717(3)
H7 H 0.55860 0.91880 0.05610
C4 C 0.5548(4) 0.8051(5) 0.0104(3)
C5 C 0.5754(4) 0.7035(5) 0.0291(3)
H8 H 0.56300 0.67600 -0.01560
C6 C 0.6150(3) 0.6411(3) 0.1152(2)
H9 H 0.63010 0.57030 0.12910
C7 C 0.2330(2) 0.4742(2) 0.26181(19)
C8 C 0.2782(3) 0.3922(2) 0.2344(2)
H10 H 0.31550 0.33140 0.27770
C9 C 0.2696(3) 0.3978(3) 0.1458(2)
H11 H 0.30160 0.34200 0.12800
C10 C 0.2139(3) 0.4856(3) 0.0841(2)
C11 C 0.1655(3) 0.5669(3) 0.1082(2)
H12 H 0.12510 0.62610 0.06480
C12 C 0.1763(3) 0.5616(2) 0.1972(2)
H13 H 0.14470 0.61830 0.21400
C13 C 0.6775(3) 0.1156(2) 0.5737(2)
C14 C 0.7724(4) 0.0590(3) 0.6278(3)
H14 H 0.83740 0.08620 0.62320
C15 C 0.7716(6) -0.0372(4) 0.6883(3)
H15 H 0.83610 -0.07590 0.72440
C16 C 0.6777(7) -0.0747(3) 0.6951(4)
C17 C 0.5854(6) -0.0237(4) 0.6428(4)
H16 H 0.52140 -0.05240 0.64790
C18 C 0.5854(4) 0.0721(3) 0.5812(3)
H17 H 0.52110 0.10810 0.54370
C19 C 0.0921(3) 0.5229(4) 0.7849(3)
H18 H 0.10920 0.47820 0.84720
H19 H 0.01360 0.55630 0.77820
H20 H 0.13850 0.57360 0.76970
C20 C 0.0768(5) 0.8368(7) 0.5956(6)
H21 H 0.10330 0.90000 0.57740
H22 H 0.11250 0.79210 0.65350
H23 H -0.00390 0.85050 0.60130
C21 C -0.2053(4) 0.7987(4) 0.5251(4)
H24 H -0.27530 0.80750 0.55550
H25 H -0.22120 0.80620 0.46250
H26 H -0.16400 0.84950 0.52660
P1 P 0.82505(7) 0.12053(6) 0.09022(6)
C22 C 0.8720(3) -0.0026(2) 0.1704(2)
C23 C 0.7956(4) -0.0617(3) 0.2105(3)
H27 H 0.71830 -0.03620 0.19720
C24 C 0.8338(5) -0.1589(3) 0.2707(3)
H28 H 0.78230 -0.19970 0.29880
C25 C 0.9461(5) -0.1955(3) 0.2892(3)
H29 H 0.97150 -0.26170 0.32990
C26 C 1.0211(5) -0.1377(3) 0.2495(3)
H30 H 1.09820 -0.16430 0.26290
C27 C 0.9861(3) -0.0407(3) 0.1899(3)
H31 H 1.03860 -0.00070 0.16280
C28 C 0.9413(3) 0.1814(2) 0.0578(2)
C29 C 0.9954(3) 0.1819(3) -0.0213(3)
H32 H 0.97190 0.14930 -0.05840
C30 C 1.0843(3) 0.2308(3) -0.0451(3)
H33 H 1.12080 0.23250 -0.09920
C31 C 1.1194(3) 0.2764(3) 0.0096(3)
H34 H 1.18070 0.30880 -0.00670
C32 C 1.0662(4) 0.2756(4) 0.0880(3)
H35 H 1.09100 0.30720 0.12540
C33 C 0.9764(3) 0.2285(3) 0.1123(3)
H36 H 0.93920 0.22860 0.16580
C34 C 0.7672(3) 0.1096(2) -0.0080(2)
C35 C 0.7614(3) 0.0157(2) -0.0120(2)
H37 H 0.78580 -0.04320 0.03830
C36 C 0.7201(3) 0.0083(3) -0.0894(2)
H38 H 0.71710 -0.05590 -0.09210
C37 C 0.6832(3) 0.0935(3) -0.1625(2)
H39 H 0.65360 0.08790 -0.21500
C38 C 0.6893(3) 0.1869(3) -0.1594(2)
H40 H 0.66460 0.24540 -0.21000
C39 C 0.7312(3) 0.1955(3) -0.0831(2)
H41 H 0.73560 0.25980 -0.08150
C40 C 0.7280(3) 0.1954(3) 0.1407(2)
C41 C 0.6754(4) 0.2910(3) 0.0889(3)
H42 H 0.68720 0.31560 0.02630
C42 C 0.6047(4) 0.3517(3) 0.1289(3)
H43 H 0.56900 0.41770 0.09320
C43 C 0.5865(3) 0.3176(3) 0.2175(3)
H44 H 0.53660 0.35880 0.24360
C44 C 0.6403(4) 0.2229(4) 0.2702(3)
H45 H 0.62940 0.20000 0.33300
C45 C 0.7104(4) 0.1610(3) 0.2321(3)
H46 H 0.74610 0.09530 0.26850
Nb1A Nb 0.418691(19) 0.440204(18) 0.616732(16)
Nb2A Nb 0.625676(19) 0.514631(18) 0.576302(16)
Nb3A Nb 0.415148(19) 0.645417(18) 0.489290(16)
Cl2A Cl 0.74644(5) 0.34484(5) 0.60611(5)
Cl3A Cl 0.30504(6) 0.59918(5) 0.62507(5)
Cl4A Cl 0.50256(6) 0.26120(5) 0.64818(5)
Cl5A Cl 0.25372(5) 0.41421(5) 0.54756(4)
K1A K -0.05678(6) 0.38644(6) 0.46553(5)
K1A* K 0.94322(6) 0.38644(6) 0.46553(5)
O4A O 0.03277(18) 0.55685(17) 0.38796(15)
#END
