
#######################################################################
#
#                 Cambridge Crystallographic Data Centre
#                                CCDC
#
#######################################################################
#
# If this CIF has been generated from an entry in the Cambridge
# Structural Database, then it will include bibliographic, chemical,
# crystal, experimental, refinement or atomic coordinate data resulting
# from the CCDC's data processing and validation procedures.
#
#######################################################################

data_CSD_CIF_ZUDPUL
_audit_creation_date 2015-03-31
_audit_creation_method CSD-ConQuest-V1
_database_code_CSD ZUDPUL
_database_code_depnum_ccdc_archive 'CCDC 934273'
_chemical_formula_sum 'C24 H38 Cd1 N2 O7'
_chemical_formula_moiety
;
(C12 H28 N1 1+)n,n(C12 H10 Cd1 N1 O7 1-)
;
_journal_coden_Cambridge 208
_journal_volume 223
_journal_year 2015
_journal_page_first 44
_journal_name_full 'J.Solid State Chem. '
loop_
_publ_author_name
"Xiao-Ping Lei"
"Ting-Ting Lian"
"Shu-Mei Chen"
"Jian Zhang"
_chemical_name_systematic
;
catena-[Tetra-n-propylammonium 
(\m~3~-benzene-1,3,5-tricarboxylato)-(N,N-dimethylformamide-O)-cadmium]
;
_cell_volume   2537.724
_exptl_crystal_colour 'colorless'
_exptl_crystal_density_diffrn 1.515
_exptl_crystal_description 'sheet'
_diffrn_ambient_temperature 293
#These two values have been output from a single CSD field.
_refine_ls_R_factor_gt 0.0261
_refine_ls_wR_factor_gt 0.0261
_symmetry_cell_setting orthorhombic
_symmetry_space_group_name_H-M 'P c a 21'
_symmetry_Int_Tables_number 29
loop_
_symmetry_equiv_pos_site_id
_symmetry_equiv_pos_as_xyz
1 x,y,z
2 -x,-y,1/2+z
3 1/2+x,-y,z
4 1/2-x,y,1/2+z
_cell_length_a 18.2988(6)
_cell_length_b 8.9290(3)
_cell_length_c 15.5317(8)
_cell_angle_alpha 90
_cell_angle_beta 90
_cell_angle_gamma 90
_cell_formula_units_Z 4
loop_
_atom_type_symbol
_atom_type_radius_bond
C 0.68
H 0.23
Cd 1.44
N 0.68
O 0.68
loop_
_atom_site_label
_atom_site_type_symbol
_atom_site_fract_x
_atom_site_fract_y
_atom_site_fract_z
Cd1 Cd 0.424158(13) 0.27667(3) 0.15501(3)
O1 O 0.56415(16) 0.3388(4) 0.1551(4)
O2 O 0.44470(15) 0.0218(3) 0.1588(3)
O3 O 0.8277(2) 0.7705(3) 0.0603(3)
O4 O 0.6689(3) 0.7913(4) -0.2052(3)
C1 C 0.7961(2) 0.6497(5) 0.0791(3)
C2 C 0.7237(2) 0.6147(4) 0.0364(3)
C3 C 0.6259(3) 0.7017(5) -0.1724(3)
C4 C 0.5502(3) 0.3961(5) 0.0847(3)
O5 O 0.48851(18) 0.3844(4) 0.0490(2)
C5 C 0.7068(2) 0.6737(5) -0.0431(3)
H1 H 0.73980 0.73830 -0.06960
C6 C 0.4621(3) -0.2891(5) 0.1643(8)
H2 H 0.49170 -0.22230 0.13070
H3 H 0.43750 -0.35810 0.12680
H4 H 0.49270 -0.34360 0.20360
O6 O 0.56941(18) 0.6544(5) -0.2094(2)
O7 O 0.82217(17) 0.5575(4) 0.1310(2)
C7 C 0.6077(2) 0.4887(5) 0.0386(3)
C8 C 0.5929(3) 0.5445(7) -0.0433(3)
H5 H 0.54960 0.51800 -0.07080
C9 C 0.6421(2) 0.6393(5) -0.0845(3)
C10 C 0.4044(3) -0.0563(5) 0.2039(3)
H6 H 0.36790 -0.00730 0.23460
N1 N 0.4084(3) -0.2034(4) 0.2125(3)
C11 C 0.6743(2) 0.5213(4) 0.0767(3)
H7 H 0.68580 0.47990 0.13000
C12 C 0.3584(4) -0.2858(7) 0.2684(5)
H8 H 0.32600 -0.21670 0.29660
H9 H 0.38580 -0.33990 0.31090
H10 H 0.33030 -0.35500 0.23460
C13 C 0.3662(3) -0.2709(5) -0.1503(3)
H11 H 0.31570 -0.27670 -0.16900
H12 H 0.39660 -0.27800 -0.20130
N2 N 0.3785(2) -0.1190(4) -0.1095(2)
C14 C 0.3794(4) -0.5475(7) -0.1464(5)
H13 H 0.38990 -0.63130 -0.10970
H14 H 0.41510 -0.54260 -0.19160
H15 H 0.33160 -0.55940 -0.17100
C15 C 0.4606(3) -0.0972(5) -0.0977(4)
H16 H 0.47750 -0.16810 -0.05480
H17 H 0.48460 -0.12200 -0.15150
C16 C 0.3468(3) 0.0025(5) -0.1666(3)
H18 H 0.29450 -0.01360 -0.17140
H19 H 0.35400 0.09840 -0.13850
C17 C 0.3819(3) -0.4038(5) -0.0939(4)
H20 H 0.34600 -0.40880 -0.04800
H21 H 0.42980 -0.39280 -0.06790
C18 C 0.3427(3) -0.1099(5) -0.0218(3)
H22 H 0.36710 -0.18050 0.01600
H23 H 0.35130 -0.01050 0.00130
C19 C 0.4848(3) 0.0575(6) -0.0708(4)
H24 H 0.45530 0.09170 -0.02280
H25 H 0.47810 0.12690 -0.11830
C20 C 0.2387(3) -0.1508(6) 0.0739(4)
H26 H 0.18710 -0.16990 0.07690
H27 H 0.24950 -0.05820 0.10260
H28 H 0.26470 -0.23100 0.10150
C21 C 0.3784(3) 0.0113(6) -0.2560(3)
H29 H 0.36820 -0.08080 -0.28690
H30 H 0.43100 0.02350 -0.25260
C22 C 0.3451(3) 0.1426(5) -0.3034(4)
H31 H 0.36510 0.14750 -0.36050
H32 H 0.35610 0.23360 -0.27320
H33 H 0.29310 0.12990 -0.30670
C23 C 0.5643(3) 0.0538(7) -0.0449(5)
H34 H 0.57950 0.15230 -0.02780
H35 H 0.59330 0.02110 -0.09280
H36 H 0.57060 -0.01430 0.00230
C24 C 0.2616(3) -0.1406(6) -0.0180(4)
H37 H 0.23510 -0.06050 -0.04640
H38 H 0.25060 -0.23370 -0.04740
Cd1A Cd 0.575842(13) 0.72333(3) -0.34499(3)
Cd1B Cd 0.924158(13) 0.72333(3) 0.15501(3)
O3B O 0.3277(2) 0.2295(3) 0.0603(3)
O6A O 0.43059(18) 0.3456(5) 0.2906(2)
O7B O 0.32217(17) 0.4425(4) 0.1310(2)
#END
