
#######################################################################
#
#                 Cambridge Crystallographic Data Centre
#                                CCDC
#
#######################################################################
#
# If this CIF has been generated from an entry in the Cambridge
# Structural Database, then it will include bibliographic, chemical,
# crystal, experimental, refinement or atomic coordinate data resulting
# from the CCDC's data processing and validation procedures.
#
#######################################################################

data_CSD_CIF_ZUDQIA
_audit_creation_date 2015-03-31
_audit_creation_method CSD-ConQuest-V1
_database_code_CSD ZUDQIA
_database_code_depnum_ccdc_archive 'CCDC 934276'
_chemical_formula_sum 'C24 H25 Cd1 N3 O6'
_chemical_formula_moiety
;
(C2 H8 N1 1+)n,n(C22 H17 Cd1 N2 O6 1-)
;
_journal_coden_Cambridge 208
_journal_volume 223
_journal_year 2015
_journal_page_first 44
_journal_name_full 'J.Solid State Chem. '
loop_
_publ_author_name
"Xiao-Ping Lei"
"Ting-Ting Lian"
"Shu-Mei Chen"
"Jian Zhang"
_chemical_name_systematic
;
catena-[Dimethylammonium 
(\m~3~-benzene-1,3,5-tricarboxylato)-(\m~2~-1.3-bis(4-pyridyl)propane)-cadmium
]
;
_cell_volume   2536.690
_exptl_crystal_colour 'colorless'
_exptl_crystal_description 'sheet'
_diffrn_ambient_temperature 293
_refine_special_details
;
The cation is disordered by symmetry.

;
#These two values have been output from a single CSD field.
_refine_ls_R_factor_gt 0.0436
_refine_ls_wR_factor_gt 0.0436
_symmetry_cell_setting orthorhombic
_symmetry_space_group_name_H-M 'P n m a'
_symmetry_Int_Tables_number 62
loop_
_symmetry_equiv_pos_site_id
_symmetry_equiv_pos_as_xyz
1 x,y,z
2 1/2-x,-y,1/2+z
3 -x,1/2+y,-z
4 1/2+x,1/2-y,1/2-z
5 -x,-y,-z
6 -1/2+x,y,-1/2-z
7 x,-1/2-y,z
8 -1/2-x,-1/2+y,-1/2+z
_cell_length_a 16.8094(7)
_cell_length_b 14.4553(7)
_cell_length_c 10.4397(3)
_cell_angle_alpha 90
_cell_angle_beta 90
_cell_angle_gamma 90
_cell_formula_units_Z 4
loop_
_atom_type_symbol
_atom_type_radius_bond
C 0.68
H 0.23
Cd 1.44
N 0.68
O 0.68
loop_
_atom_site_label
_atom_site_type_symbol
_atom_site_fract_x
_atom_site_fract_y
_atom_site_fract_z
Cd1 Cd 0.41164(3) 0.25000 0.04604(5)
C1 C 0.5948(5) 0.25000 0.4240(8)
C2 C 0.4660(4) 0.25000 0.5205(7)
C3 C 0.5824(5) 0.25000 0.6527(8)
C4 C 0.6290(5) 0.25000 0.5461(7)
O1 O 0.4013(3) 0.25000 0.2738(5)
O2 O 0.5197(3) 0.25000 0.1845(5)
C5 C 0.7186(5) 0.25000 0.5588(7)
N1 N 0.3821(3) 0.0943(4) 0.0380(5)
C6 C 0.4748(4) 0.25000 0.2823(7)
O3 O 0.7624(3) 0.25000 0.4718(5)
C7 C 0.5135(4) 0.25000 0.4122(7)
C8 C 0.4486(5) 0.25000 0.7581(8)
C9 C 0.4004(5) 0.0394(6) -0.0566(9)
H1 H 0.43970 0.05890 -0.11330
O4 O 0.4821(3) 0.25000 0.8651(5)
O5 O 0.3755(4) 0.25000 0.7420(7)
C10 C 0.4999(4) 0.25000 0.6411(7)
O6 O 0.7407(4) 0.25000 0.6757(7)
C11 C 0.3144(6) -0.25000 -0.0013(10)
H2 H 0.35970 -0.25000 -0.05880
H3 H 0.33420 -0.25000 0.08600
C12 C 0.3086(4) -0.0766(5) -0.0009(8)
C13 C 0.2640(6) -0.1639(5) -0.0244(10)
H4 H 0.24510 -0.16440 -0.11210
H5 H 0.21800 -0.16580 0.03150
C14 C 0.3666(7) -0.0429(6) -0.0779(10)
H6 H 0.38340 -0.07790 -0.14750
C15 C 0.2925(7) -0.0220(7) 0.1025(10)
H7 H 0.25570 -0.04190 0.16320
C16 C 0.3292(7) 0.0606(6) 0.1180(9)
H8 H 0.395(7) 0.25000 0.523(11)
H9 H 0.628(4) 0.25000 0.349(6)
H10 H 0.612(5) 0.25000 0.740(9)
H11 H 0.331(5) 0.085(6) 0.203(8)
C17 C 0.421(1) 0.0098(15) 0.6208(15)
N2 N 0.466(3) -0.002(3) 0.499(6)
C18 C 0.445(3) 0.010(2) 0.370(3)
N1F N 0.3821(3) -0.5943(4) 0.0380(5)
C9F C 0.4004(5) -0.5394(6) -0.0566(9)
H1F H 0.43970 -0.55890 -0.11330
C12F C 0.3086(4) -0.4234(5) -0.0009(8)
C13F C 0.2640(6) -0.3361(5) -0.0244(10)
H4F H 0.24510 -0.33560 -0.11210
H5F H 0.21800 -0.33420 0.03150
C14F C 0.3666(7) -0.4571(6) -0.0779(10)
H6F H 0.38340 -0.42210 -0.14750
C15F C 0.2925(7) -0.4780(7) 0.1025(10)
H7F H 0.25570 -0.45810 0.16320
C16F C 0.3292(7) -0.5606(6) 0.1180(9)
H11F H 0.331(5) -0.585(6) 0.203(8)
Cd1* Cd 0.41164(3) -0.75000 0.04604(5)
Cd1** Cd 0.41164(3) 0.25000 1.04604(5)
Cd1C Cd 0.91164(3) 0.25000 0.45396(5)
N1F* N 0.3821(3) 0.4057(4) 0.0380(5)
O3C O 0.2624(3) 0.25000 0.0282(5)
O4* O 0.4821(3) 0.25000 -0.1349(5)
#END
