
#######################################################################
#
#                 Cambridge Crystallographic Data Centre
#                                CCDC
#
#######################################################################
#
# If this CIF has been generated from an entry in the Cambridge
# Structural Database, then it will include bibliographic, chemical,
# crystal, experimental, refinement or atomic coordinate data resulting
# from the CCDC's data processing and validation procedures.
#
#######################################################################

data_CSD_CIF_ZUFGUC01
_audit_creation_date 2005-04-13
_audit_creation_method CSD-ConQuest-V1
_database_code_CSD ZUFGUC01
_database_code_depnum_ccdc_archive 'CCDC 183251'
_chemical_formula_sum 'C12 H28 Mn3 O26'
_chemical_formula_moiety
;
(C12 H12 Mn2 O18 1-)n,n(H12 Mn1 O6 1+),2n(H2 O1)
;
_journal_coden_Cambridge 1039
_journal_volume 26
_journal_year 2003
_journal_page_first 330
_journal_name_full 'Shanxi Daxue Xuebao,Ziran Kex.(Chin.)(J.Shanxi Univ.(Nat.Sci.)) '
loop_
_publ_author_name
"Ming-gen Zhao"
"Cheng-qi Liu"
"Jin-Chang Guo"
_chemical_name_systematic
;
catena-(Hexa-aqua-manganese(ii) 
(\m~6~-benzenehexacarboxylato)-hexa-aqua-di-manganese(ii) dihydrate)
;
_cell_volume   2516.366
_exptl_crystal_colour 'colorless'
_exptl_crystal_density_diffrn 1.988
_exptl_crystal_description 'prism'
_diffrn_ambient_temperature 298
#These two values have been output from a single CSD field.
_refine_ls_R_factor_gt 0.0338
_refine_ls_wR_factor_gt 0.0338
_symmetry_cell_setting monoclinic
_symmetry_space_group_name_H-M 'C 2/c'
_symmetry_Int_Tables_number 15
loop_
_symmetry_equiv_pos_site_id
_symmetry_equiv_pos_as_xyz
1 x,y,z
2 1/2+x,1/2+y,z
3 -x,y,1/2-z
4 1/2-x,1/2+y,1/2-z
5 -x,-y,-z
6 -1/2-x,-1/2-y,-z
7 x,-y,-1/2+z
8 -1/2+x,-1/2-y,-1/2+z
_cell_length_a 23.286(8)
_cell_length_b 6.452(2)
_cell_length_c 17.064(5)
_cell_angle_alpha 90
_cell_angle_beta 101.029(5)
_cell_angle_gamma 90
_cell_formula_units_Z 4
loop_
_atom_type_symbol
_atom_type_radius_bond
C 0.68
H 0.23
Mn 1.35
O 0.68
loop_
_atom_site_label
_atom_site_type_symbol
_atom_site_fract_x
_atom_site_fract_y
_atom_site_fract_z
Mn1 Mn 0.07084(3) 0.71677(9) 1.09340(4)
Mn2 Mn 0.25000 0.25000 1.00000
O1 O 0.05866(13) 0.6879(4) 0.96470(15)
O2 O 0.11113(14) 0.9307(5) 0.91759(17)
O3 O 0.15087(13) 0.5955(4) 0.80575(17)
O4 O 0.15262(13) 0.9008(4) 0.74465(17)
O5 O -0.05760(12) 0.9490(4) 0.92313(15)
O6 O -0.08492(12) 0.6202(4) 0.90253(15)
O7 O 0.16768(15) 0.7497(6) 1.1020(2)
O8 O 0.08641(16) 0.7444(6) 1.22210(19)
O9 O -0.02179(18) 0.6934(7) 1.0888(2)
O10 O 0.2114(2) 0.5529(7) 0.9631(3)
O11 O 0.21746(19) 0.1208(6) 0.8854(2)
O12 O 0.17059(16) 0.1541(6) 1.0379(2)
O13 O 0.23130(18) 0.3415(6) 0.7533(2)
C1 C 0.03372(18) 0.7744(5) 0.8271(2)
C2 C 0.06108(18) 0.7669(5) 0.7605(2)
C3 C -0.02655(18) 0.7711(6) 0.8163(2)
C4 C 0.07124(18) 0.7989(6) 0.9096(2)
C5 C 0.12658(19) 0.7537(7) 0.7717(2)
C6 C -0.05810(18) 0.7813(6) 0.8863(2)
H1 H 0.177(3) 0.853(8) 1.101(3)
H2 H 0.190(3) 0.698(8) 1.152(4)
H3 H 0.106(2) 0.864(8) 1.237(3)
H4 H 0.104(3) 0.645(10) 1.252(4)
H5 H -0.037(3) 0.565(12) 1.069(4)
H6 H -0.040(3) 0.766(10) 1.078(4)
H7 H 0.204(2) 0.601(8) 0.989(3)
H8 H 0.186(5) 0.574(13) 0.908(6)
H9 H 0.191(3) 0.048(9) 0.881(3)
H10 H 0.216(3) 0.170(8) 0.838(4)
H11 H 0.136(4) 0.056(12) 0.995(5)
H12 H 0.150(3) 0.217(9) 1.057(4)
H13 H 0.215(2) 0.442(7) 0.759(3)
H14 H 0.269(3) 0.367(8) 0.755(3)
Mn1B Mn -0.07084(3) 0.71677(9) 0.40660(4)
Mn1D Mn -0.07084(3) 1.28323(9) 0.90660(4)
Mn1D* Mn -0.07084(3) 0.28323(9) 0.90660(4)
Mn1F Mn 0.07084(3) 1.28323(9) 0.59340(4)
Mn1F* Mn 0.07084(3) 0.28323(9) 0.59340(4)
O1B O -0.05866(13) 0.6879(4) 0.53530(15)
O2B O -0.11113(14) 0.9307(5) 0.58241(17)
O3B O -0.15087(13) 0.5955(4) 0.69425(17)
O4B O -0.15262(13) 0.9008(4) 0.75535(17)
O5B O 0.05760(12) 0.9490(4) 0.57687(15)
O5D O 0.05760(12) 1.0510(4) 1.07687(15)
O5F O -0.05760(12) 1.0510(4) 0.42313(15)
O6B O 0.08492(12) 0.6202(4) 0.59747(15)
O6D O 0.08492(12) 0.3798(4) 1.09747(15)
O6F O -0.08492(12) 0.3798(4) 0.40253(15)
O7B O -0.16768(15) 0.7497(6) 0.3980(2)
O8B O -0.08641(16) 0.7444(6) 0.27790(19)
O9B O 0.02179(18) 0.6934(7) 0.4112(2)
O10E O 0.2886(2) -0.0529(7) 1.0369(3)
O11E O 0.28254(19) 0.3792(6) 1.1146(2)
O12E O 0.32941(16) 0.3459(6) 0.9621(2)
C1B C -0.03372(18) 0.7744(5) 0.6729(2)
C2B C -0.06108(18) 0.7669(5) 0.7395(2)
C3B C 0.02655(18) 0.7711(6) 0.6837(2)
C4B C -0.07124(18) 0.7989(6) 0.5904(2)
C5B C -0.12658(19) 0.7537(7) 0.7283(2)
C6B C 0.05810(18) 0.7813(6) 0.6137(2)
H1B H -0.177(3) 0.853(8) 0.399(3)
H2B H -0.190(3) 0.698(8) 0.348(4)
H3B H -0.106(2) 0.864(8) 0.263(3)
H4B H -0.104(3) 0.645(10) 0.248(4)
H5B H 0.037(3) 0.565(12) 0.431(4)
H6B H 0.040(3) 0.766(10) 0.422(4)
H7E H 0.296(2) -0.101(8) 1.011(3)
H8E H 0.314(5) -0.074(13) 1.092(6)
H9E H 0.309(3) 0.452(9) 1.119(3)
H10E H 0.284(3) 0.330(8) 1.162(4)
H11E H 0.364(4) 0.444(12) 1.005(5)
H12E H 0.350(3) 0.283(9) 0.943(4)
#END
