
#######################################################################
#
#                 Cambridge Crystallographic Data Centre
#                                CCDC
#
#######################################################################
#
# If this CIF has been generated from an entry in the Cambridge
# Structural Database, then it will include bibliographic, chemical,
# crystal, experimental, refinement or atomic coordinate data resulting
# from the CCDC's data processing and validation procedures.
#
#######################################################################

data_CSD_CIF_ZUGQAW
_audit_creation_date 2020-01-15
_audit_creation_method CSD-ConQuest-V1
_database_code_CSD ZUGQAW
_database_code_depnum_ccdc_archive 'CCDC 1965913'
_chemical_formula_sum 'C8 H24 Cd2 Cl2 N2 O12 S4'
_chemical_formula_moiety
;
(C4 H8 Cd2 Cl2 O12 S4 2-)n,2n(C2 H8 N1 1+)
;
_journal_coden_Cambridge 182
_journal_volume 56
_journal_year 2020
_journal_page_first 1325
_journal_name_full 'Chem.Commun. '
loop_
_publ_author_name
"Guiyang Zhang"
"Jinlin Yin"
"Xueling Song"
"Honghan Fei"
_chemical_name_systematic
;
catena-(bis(dimethylammonium) 
bis(\m-chloro)-bis(\m-ethane-1,2-disulfonato)-di-cadmium)
;
_cell_volume    547.708
_exptl_crystal_colour 'colorless'
_exptl_crystal_density_diffrn 2.317
_exptl_crystal_description 'block'
_diffrn_ambient_temperature 150
_diffrn_special_details
;
twin

;
#These two values have been output from a single CSD field.
_refine_ls_R_factor_gt 0.018
_refine_ls_wR_factor_gt 0.018
_symmetry_cell_setting triclinic
_symmetry_space_group_name_H-M 'P -1'
_symmetry_Int_Tables_number 2
loop_
_symmetry_equiv_pos_site_id
_symmetry_equiv_pos_as_xyz
1 x,y,z
2 -x,-y,-z
_cell_length_a 8.0898(9)
_cell_length_b 8.7429(11)
_cell_length_c 9.3861(11)
_cell_angle_alpha 113.630(4)
_cell_angle_beta 100.423(4)
_cell_angle_gamma 106.839(4)
_cell_formula_units_Z 1
loop_
_atom_type_symbol
_atom_type_radius_bond
C 0.68
H 0.23
Cd 1.44
Cl 0.99
N 0.68
O 0.68
S 1.02
loop_
_atom_site_label
_atom_site_type_symbol
_atom_site_fract_x
_atom_site_fract_y
_atom_site_fract_z
Cd1 Cd 0.50000 0.50000 0.50000
Cl1 Cl 1.15772(9) 0.28380(8) 0.39174(8)
S1 S 0.29303(8) 0.72333(8) 0.34696(8)
O1 O 0.1999(3) 0.7271(3) 0.4684(2)
C1 C 0.4294(3) 0.9554(3) 0.4143(3)
H1 H 0.49311 0.96271 0.33514
H2 H 0.34905 1.02224 0.41641
Cd2 Cd 1.00000 0.50000 0.50000
S2 S 0.61818(8) 0.29392(8) 0.15233(7)
O2 O 0.1689(3) 0.6520(3) 0.1814(2)
C2 C 0.6001(3) 0.0675(3) 0.0427(3)
H3 H 0.66112 0.05870 -0.04094
H4 H 0.66365 0.03592 0.12041
O3 O 0.4225(3) 0.6359(3) 0.3489(2)
O4 O 0.5192(3) 0.2884(3) 0.2678(2)
O5 O 0.5359(3) 0.3388(3) 0.0325(2)
O6 O 0.8156(2) 0.4062(2) 0.2353(2)
N1 N -0.1701(3) 0.6790(3) 0.0954(3)
H5 H -0.10371 0.61484 0.10936
H6 H -0.28606 0.59754 0.02704
C3 C -0.0876(4) 0.7821(4) 0.0155(4)
H7 H -0.04942 0.70607 -0.06986
H8 H 0.01950 0.89278 0.09865
H9 H -0.17829 0.81561 -0.03518
C4 C -0.1773(4) 0.7970(4) 0.2581(3)
H10 H -0.23340 0.87896 0.24719
H11 H -0.05255 0.86917 0.33858
H12 H -0.25074 0.72075 0.29596
S1A S 0.70697(8) 1.27667(8) 0.65304(8)
O1A O 0.8001(3) 1.2729(3) 0.5316(2)
C1A C 0.5706(3) 1.0446(3) 0.5857(3)
H1A H 0.50689 1.03729 0.66486
H2A H 0.65095 0.97776 0.58359
O2A O 0.8311(3) 1.3480(3) 0.8186(2)
O3A O 0.5775(3) 1.3641(3) 0.6511(2)
S2A S 0.38182(8) -0.29392(8) -0.15233(7)
C2A C 0.3999(3) -0.0675(3) -0.0427(3)
H3A H 0.33888 -0.05870 0.04094
H4A H 0.33635 -0.03592 -0.12041
O4A O 0.4808(3) -0.2884(3) -0.2678(2)
O5A O 0.4641(3) -0.3388(3) -0.0325(2)
O6A O 0.1844(2) -0.4062(2) -0.2353(2)
Cl1A Cl 0.84228(9) 0.71620(8) 0.60826(8)
Cd1* Cd 0.50000 -0.50000 -0.50000
Cd1** Cd 0.50000 1.50000 0.50000
Cd1*** Cd 1.50000 0.50000 0.50000
Cl1* Cl 0.15772(9) 0.28380(8) 0.39174(8)
O1* O 1.1999(3) 0.7271(3) 0.4684(2)
O1A* O 0.8001(3) 0.2729(3) 0.5316(2)
Cd2* Cd 0.00000 -0.50000 -0.50000
Cd2** Cd 0.00000 0.50000 0.50000
Cd2*** Cd 1.00000 1.50000 0.50000
O3A* O 0.5775(3) 0.3641(3) 0.6511(2)
O4A* O 0.4808(3) 0.7116(3) 0.7322(2)
O6A* O 1.1844(2) 0.5938(2) 0.7647(2)
#END
