
#######################################################################
#
#                 Cambridge Crystallographic Data Centre
#                                CCDC
#
#######################################################################
#
# If this CIF has been generated from an entry in the Cambridge
# Structural Database, then it will include bibliographic, chemical,
# crystal, experimental, refinement or atomic coordinate data resulting
# from the CCDC's data processing and validation procedures.
#
#######################################################################

data_CSD_CIF_ZUHVUW
_audit_creation_date 2020-01-16
_audit_creation_method CSD-ConQuest-V1
_database_code_CSD ZUHVUW
_database_code_depnum_ccdc_archive 'CCDC 1952794'
_chemical_formula_sum 'C128 H212 As4 Cu10 K4 N44 Nb24 O124'
_chemical_formula_moiety
;
(C120 H80 As4 Cu10 N20 Nb24 O82 12-)n,8(C1 H6 N3 1+),4(K1 1+),42(H2 O1)
;
_journal_coden_Cambridge 9
_journal_volume 59
_journal_year 2020
_journal_page_first 1967
_journal_name_full 'Inorg.Chem. '
loop_
_publ_author_name
"Zongfei Yang"
"Jingjing Shang"
"Yuzan He"
"Yuanyuan Qiao"
"Pengtao Ma"
"Jingyang Niu"
"Jingping Wang"
_chemical_name_systematic
;
catena-[octakis(diaminomethaniminium) tetra-potassium 
bis(\m-pentaoxodiarsenato)-hexapentacontakis(\m-oxido)-decakis(1,10-phenanthro
line)-hexadecaoxo-deca-copper(ii)-tetracosa-niobium(v) dotetracontahydrate]
;
_cell_volume   6142.378
_exptl_crystal_colour 'green'
_exptl_crystal_density_diffrn 2.051
_exptl_crystal_description 'block'
_diffrn_ambient_temperature 296.1
#These two values have been output from a single CSD field.
_refine_ls_R_factor_gt 0.0682
_refine_ls_wR_factor_gt 0.0682
_symmetry_cell_setting triclinic
_symmetry_space_group_name_H-M 'P -1'
_symmetry_Int_Tables_number 2
loop_
_symmetry_equiv_pos_site_id
_symmetry_equiv_pos_as_xyz
1 x,y,z
2 -x,-y,-z
_cell_length_a 14.2736(8)
_cell_length_b 14.3221(7)
_cell_length_c 33.7000(18)
_cell_angle_alpha 80.993(1)
_cell_angle_beta 85.265(1)
_cell_angle_gamma 64.536(1)
_cell_formula_units_Z 1
loop_
_atom_type_symbol
_atom_type_radius_bond
C 0.68
H 0.23
As 1.21
Cu 1.32
K 2.03
N 0.68
Nb 1.64
O 0.68
loop_
_atom_site_label
_atom_site_type_symbol
_atom_site_fract_x
_atom_site_fract_y
_atom_site_fract_z
Nb1 Nb 0.57645(8) 0.40363(8) 0.56311(3)
Nb2 Nb 0.34577(8) 0.58920(8) 0.53655(3)
Nb3 Nb 0.44717(8) 0.36589(8) 0.49508(3)
Nb4 Nb 0.71730(9) 0.01325(8) 0.69099(3)
Nb5 Nb 0.68629(9) -0.04263(9) 0.78967(3)
Nb6 Nb 0.46873(9) 0.05398(9) 0.72698(4)
Nb7 Nb 0.60859(10) -0.13840(9) 0.67220(4)
Nb8 Nb 0.53282(9) 0.07496(10) 0.93530(3)
Nb9 Nb 0.57299(10) -0.19260(9) 0.77184(4)
Nb10 Nb 0.44119(9) -0.10086(10) 0.96739(4)
Nb11 Nb 0.81108(10) -0.23286(9) 0.73337(4)
Nb12 Nb 0.32986(9) 0.1393(1) 0.99667(4)
As1 As 0.5238(1) 0.26911(10) 0.69244(4)
As2 As 0.49531(10) 0.2113(1) 0.79103(4)
Cu1 Cu 0.74614(11) 0.24240(11) 0.65687(5)
Cu2 Cu 0.72459(12) 0.18023(11) 0.75610(5)
Cu3 Cu 0.23928(11) 0.55732(12) 0.46298(5)
Cu4 Cu 0.69033(12) 0.11872(13) 0.85508(5)
Cu5 Cu 0.26518(13) -0.04166(14) 1.03525(5)
O1 O 0.4070(7) 0.2672(6) 0.4906(3)
O2 O 0.3820(6) 0.4728(6) 0.4452(2)
O3 O 0.3016(6) 0.6458(6) 0.4781(2)
O4 O 0.3285(6) 0.4646(6) 0.5250(2)
O5 O 0.2307(7) 0.6509(6) 0.5636(3)
O6 O 0.4165(6) 0.6801(6) 0.5349(3)
O7 O 0.50000 0.50000 0.50000
O8 O 0.4396(6) 0.4962(6) 0.5806(2)
O9 O 0.5243(6) 0.3131(6) 0.5454(2)
O10 O 0.6414(6) 0.3266(7) 0.6071(2)
O11 O 0.7562(7) 0.1022(6) 0.6587(3)
O12 O 0.6650(7) -0.0357(6) 0.6513(2)
O13 O 0.8384(6) -0.1134(6) 0.7000(3)
O14 O 0.7263(6) 0.0490(6) 0.7460(2)
O15 O 0.5799(8) -0.1773(7) 0.6294(3)
O16 O 0.5550(7) -0.2086(7) 0.7167(3)
O17 O 0.7490(7) -0.2395(6) 0.6859(3)
O18 O 0.4745(7) -0.0085(7) 0.6802(3)
O19 O 0.5221(8) -0.2717(8) 0.8026(3)
O20 O 0.7217(7) -0.2856(7) 0.7676(3)
O21 O 0.9334(8) -0.3393(7) 0.7359(3)
O22 O 0.8112(6) -0.1591(6) 0.7803(2)
O23 O 0.4477(7) -0.0536(7) 0.7631(3)
O24 O 0.3470(7) 0.1605(7) 0.7260(3)
O25 O 0.6138(7) -0.1250(6) 0.8109(2)
O26 O 0.7115(7) -0.0088(7) 0.8358(3)
O27 O 0.5577(6) 0.1305(6) 0.6954(2)
O28 O 0.6434(6) 0.2664(6) 0.7004(2)
O29 O 0.5326(6) 0.0828(6) 0.7769(2)
O30 O 0.6178(6) 0.2034(7) 0.7977(2)
O31 O 0.5678(7) 0.1252(7) 0.8882(3)
O32 O 0.4850(7) -0.0221(7) 0.9209(3)
O33 O 0.3947(7) 0.1738(7) 0.9447(3)
O34 O 0.50000 0.00000 1.00000
O35 O 0.2044(7) 0.2403(8) 0.9954(3)
O36 O 0.3258(6) 0.0485(7) 1.0496(3)
O37 O 0.3137(6) 0.0303(7) 0.9715(3)
O38 O 0.3971(8) -0.1751(8) 0.9434(3)
O39 O 0.5903(7) -0.1940(7) 0.9757(3)
O40 O 0.4097(6) -0.1363(7) 1.0265(2)
O41 O 0.4661(6) 0.2893(6) 0.7421(3)
O42 O 0.6407(6) -0.0753(6) 0.7309(2)
N1 N 0.0903(8) 0.6490(9) 0.4739(3)
N2 N 0.1774(8) 0.4756(8) 0.4411(3)
N3 N 0.8915(8) 0.1957(8) 0.6331(3)
N4 N 0.7726(8) 0.3682(8) 0.6638(3)
N5 N 0.8792(8) 0.1371(8) 0.7401(3)
N6 N 0.7415(9) 0.3060(8) 0.7685(3)
N7 N 0.8430(9) 0.0911(9) 0.8471(3)
N8 N 0.6831(9) 0.2460(9) 0.8745(3)
N9 N 0.2054(9) -0.1411(11) 1.0286(4)
N10 N 0.1204(9) 0.0442(10) 1.0532(4)
C1 C 0.0488(11) 0.7350(11) 0.4895(5)
H1 H 0.09212 0.76289 0.49656
C2 C -0.0603(12) 0.7893(11) 0.4966(5)
H2 H -0.08602 0.85044 0.50834
C3 C -0.1264(11) 0.7522(12) 0.4864(4)
H3 H -0.19772 0.78733 0.49015
C4 C -0.0822(10) 0.6581(11) 0.4698(4)
C5 C 0.0241(9) 0.6088(9) 0.4638(4)
C6 C -0.1433(12) 0.6075(13) 0.4600(4)
H4 H -0.21474 0.63699 0.46433
C7 C -0.0946(12) 0.5140(13) 0.4440(4)
H5 H -0.13437 0.48060 0.43839
C8 C 0.0131(10) 0.4682(11) 0.4359(4)
C9 C 0.0728(10) 0.5139(10) 0.4464(4)
C10 C 0.0654(12) 0.3775(13) 0.4188(5)
H6 H 0.02889 0.34253 0.41166
C11 C 0.1676(12) 0.3396(13) 0.4126(5)
H7 H 0.20180 0.27967 0.40028
C12 C 0.224(1) 0.3904(11) 0.4246(4)
H8 H 0.29559 0.36250 0.42064
C13 C 0.9484(11) 0.1073(11) 0.6170(4)
H9 H 0.91856 0.06253 0.61397
C14 C 1.0492(12) 0.0822(12) 0.6051(5)
H10 H 1.08617 0.02260 0.59286
C15 C 1.0972(12) 0.1459(12) 0.6113(4)
H11 H 1.16642 0.12777 0.60392
C16 C 1.0406(10) 0.2357(10) 0.6283(4)
C17 C 0.9367(10) 0.2592(10) 0.6379(4)
C18 C 1.0804(12) 0.3086(13) 0.6372(4)
H12 H 1.15017 0.29379 0.63232
C19 C 1.0181(11) 0.3965(12) 0.6523(4)
H13 H 1.04578 0.44128 0.65756
C20 C 0.9125(10) 0.4229(9) 0.6604(4)
C21 C 0.8715(10) 0.3522(10) 0.6548(4)
C22 C 0.8420(11) 0.5138(11) 0.6758(4)
H14 H 0.86392 0.56375 0.68019
C23 C 0.7421(11) 0.5294(11) 0.6843(4)
H15 H 0.69576 0.59046 0.69397
C24 C 0.7085(10) 0.4535(10) 0.6785(4)
H16 H 0.64053 0.46364 0.68517
C25 C 0.9475(11) 0.0491(11) 0.7270(4)
H17 H 0.92564 -0.00178 0.72386
C26 C 1.0498(12) 0.0308(12) 0.7179(4)
H18 H 1.09349 -0.02922 0.70690
C27 C 1.0877(12) 0.1007(13) 0.7248(4)
H19 H 1.15740 0.08641 0.72039
C28 C 1.0172(10) 0.1951(11) 0.7390(4)
C29 C 0.9114(10) 0.2086(10) 0.7474(4)
C30 C 1.0451(12) 0.2732(13) 0.7468(5)
H20 H 1.11283 0.26593 0.74186
C31 C 0.9731(14) 0.3593(13) 0.7616(5)
H21 H 0.99406 0.40847 0.76766
C32 C 0.8671(12) 0.3781(11) 0.7682(4)
C33 C 0.8394(10) 0.2991(9) 0.7618(4)
C34 C 0.7868(13) 0.4696(12) 0.7817(5)
H22 H 0.80207 0.52380 0.78647
C35 C 0.6877(14) 0.4779(11) 0.7877(5)
H23 H 0.63492 0.53763 0.79600
C36 C 0.9201(12) 0.0096(12) 0.8337(4)
H24 H 0.90743 -0.04453 0.82717
C37 C 1.0209(13) 0.0045(15) 0.8295(5)
H25 H 1.07488 -0.05450 0.82113
C38 C 1.0405(12) 0.0844(14) 0.8373(5)
H26 H 1.10677 0.08173 0.83305
C39 C 0.9609(11) 0.1706(13) 0.8518(4)
C40 C 0.8620(11) 0.1693(11) 0.8575(4)
C41 C 0.9715(14) 0.2538(15) 0.8619(5)
H27 H 1.03680 0.25398 0.85955
C42 C 0.8907(16) 0.3368(16) 0.8753(5)
H28 H 0.90084 0.39319 0.88102
C43 C 0.7908(13) 0.3371(13) 0.8805(5)
C44 C 0.6671(12) 0.3927(11) 0.7808(4)
H29 H 0.59999 0.39760 0.78495
C45 C 0.7015(16) 0.4195(14) 0.8930(6)
H30 H 0.70660 0.47824 0.89915
C46 C 0.6086(16) 0.4156(13) 0.8963(6)
H31 H 0.54947 0.47067 0.90441
C47 C 0.7757(11) 0.2541(11) 0.8708(4)
C48 C 0.6042(13) 0.3232(12) 0.8870(5)
H32 H 0.54080 0.31881 0.89001
C49 C 0.2490(15) -0.2337(14) 1.0160(5)
H33 H 0.31839 -0.25945 1.00793
C50 C 0.1955(16) -0.2940(15) 1.0143(5)
H34 H 0.22956 -0.36073 1.00705
C51 C 0.0919(16) -0.2535(16) 1.0235(5)
H35 H 0.05405 -0.29139 1.02124
C52 C 0.0437(13) -0.1573(14) 1.0361(5)
C53 C 0.1038(11) -0.1052(13) 1.0379(4)
C54 C -0.0638(14) -0.1097(17) 1.0462(5)
H36 H -0.10439 -0.14479 1.04400
C55 C -0.1075(14) -0.0177(17) 1.0586(5)
H37 H -0.17777 0.01037 1.06543
C56 C -0.0481(13) 0.0399(14) 1.0618(5)
C57 C 0.0565(11) -0.0040(12) 1.0523(4)
C58 C -0.0865(13) 0.1381(16) 1.0762(5)
H38 H -0.15505 0.16986 1.08508
C59 C -0.0228(15) 0.1843(15) 1.0767(6)
H39 H -0.04884 0.25029 1.08470
C60 C 0.0842(12) 0.1348(15) 1.0653(5)
H40 H 0.12761 0.16747 1.06665
K1 K 0.6737(3) -0.1715(3) 0.89099(10)
K2 K 0.6247(3) 0.1279(3) 0.59012(12)
O43 O 0.5724(12) -0.2994(12) 0.8842(5)
O44 O 0.7845(15) -0.3655(15) 0.8477(6)
O45 O 0.4074(14) 0.1500(14) 0.6183(6)
O46 O 0.6923(14) -0.0220(14) 0.5326(6)
O47 O 0.7841(11) 0.1417(11) 0.5362(4)
N11 N 0.2709(10) 0.1487(12) 0.8803(4)
H41 H 0.29949 0.11336 0.90259
H42 H 0.21766 0.20774 0.88044
N12 N 0.2613(10) 0.1708(12) 0.8102(4)
H43 H 0.20817 0.22984 0.81032
H44 H 0.28575 0.14719 0.78780
N13 N 0.3921(10) 0.0196(11) 0.8458(4)
H45 H 0.42127 -0.01627 0.86793
H46 H 0.41609 -0.00340 0.82333
C61 C 0.3080(12) 0.1129(14) 0.8465(5)
N14 N 0.2527(10) 0.3702(11) 0.6808(4)
H47 H 0.21607 0.40565 0.69938
H48 H 0.28046 0.30312 0.68514
N15 N 0.2232(10) 0.5209(9) 0.6402(4)
H49 H 0.18679 0.55500 0.65909
H50 H 0.23124 0.55398 0.61750
N16 N 0.3208(9) 0.3654(9) 0.6170(4)
H51 H 0.32828 0.39775 0.59404
H52 H 0.34884 0.29831 0.62098
C62 C 0.2664(12) 0.4186(13) 0.6459(5)
N17 N 0.4275(9) 0.5606(9) 0.6569(4)
H53 H 0.40618 0.53350 0.67825
H54 H 0.42437 0.54307 0.63394
N18 N 0.5071(10) 0.6622(10) 0.6263(4)
H55 H 0.53784 0.70166 0.62765
H56 H 0.50318 0.64356 0.60370
N19 N 0.4711(9) 0.6583(9) 0.6944(4)
H57 H 0.50181 0.69776 0.69584
H58 H 0.44407 0.63722 0.71564
C63 C 0.4654(11) 0.6299(11) 0.6593(5)
N20 N 0.3387(12) 0.9323(13) 0.6170(6)
H59 H 0.37182 0.96977 0.61810
H60 H 0.32823 0.91922 0.59410
N21 N 0.2429(15) 0.8446(15) 0.6451(7)
H61 H 0.21250 0.82321 0.66512
H62 H 0.23535 0.83507 0.62117
N22 N 0.3139(11) 0.9078(13) 0.6881(5)
H63 H 0.34603 0.94438 0.69201
H64 H 0.28874 0.88040 0.70816
C64 C 0.3032(18) 0.8939(17) 0.6512(8)
O48 O 0.5499(9) -0.1055(9) 0.5509(4)
O49 O 0.3030(12) 0.8845(12) 0.5418(5)
O50 O 0.8400(14) -0.1097(14) 0.5938(6)
O51 O 0.3901(14) 0.1090(14) 0.5468(6)
O52 O 0.3558(13) 0.5047(13) 0.7392(5)
O53 O 0.2661(13) -0.0718(13) 0.7928(5)
O54 O 0.3098(17) -0.1747(18) 0.8713(7)
O55 O 1.047(2) -0.188(2) 0.6757(9)
O56 O 1.0243(19) -0.1965(19) 0.7846(8)
O57 O 0.411(2) -0.373(2) 0.7930(9)
O58 O 0.997(2) 0.551(2) 0.8157(9)
O59 O 0.078(2) 0.825(2) 0.5871(8)
O60 O 0.233(2) 0.785(2) 0.7491(10)
O61 O 0.113(2) 0.343(2) 0.9188(9)
O62 O 0.327(2) 0.363(2) 0.8921(8)
O63 O 0.127(3) 0.541(3) 0.7269(11)
Nb1A Nb 0.42355(8) 0.59637(8) 0.43689(3)
Nb2A Nb 0.65423(8) 0.41080(8) 0.46345(3)
Nb3A Nb 0.55283(8) 0.63411(8) 0.50492(3)
Cu3A Cu 0.76072(11) 0.44268(12) 0.53702(5)
O1A O 0.5930(7) 0.7328(6) 0.5094(3)
O2A O 0.6180(6) 0.5272(6) 0.5548(2)
O3A O 0.6984(6) 0.3542(6) 0.5219(2)
O4A O 0.6715(6) 0.5354(6) 0.4750(2)
O5A O 0.7693(7) 0.3491(6) 0.4364(3)
O6A O 0.5835(6) 0.3199(6) 0.4651(3)
O8A O 0.5604(6) 0.5038(6) 0.4194(2)
O9A O 0.4757(6) 0.6869(6) 0.4546(2)
O10A O 0.3586(6) 0.6734(7) 0.3929(2)
N1A N 0.9097(8) 0.3510(9) 0.5261(3)
N2A N 0.8226(8) 0.5244(8) 0.5589(3)
C1A C 0.9512(11) 0.2650(11) 0.5105(5)
H1A H 0.90788 0.23711 0.50344
C2A C 1.0603(12) 0.2107(11) 0.5034(5)
H2A H 1.08602 0.14956 0.49166
C3A C 1.1264(11) 0.2478(12) 0.5136(4)
H3A H 1.19772 0.21267 0.50985
C4A C 1.0822(10) 0.3419(11) 0.5302(4)
C5A C 0.9759(9) 0.3912(9) 0.5362(4)
C6A C 1.1433(12) 0.3925(13) 0.5400(4)
H4A H 1.21474 0.36301 0.53567
C7A C 1.0946(12) 0.4860(13) 0.5560(4)
H5A H 1.13437 0.51940 0.56161
C8A C 0.9869(10) 0.5318(11) 0.5641(4)
C9A C 0.9272(10) 0.4861(10) 0.5536(4)
C10A C 0.9346(12) 0.6225(13) 0.5812(5)
H6A H 0.97111 0.65747 0.58834
C11A C 0.8324(12) 0.6604(13) 0.5874(5)
H7A H 0.79820 0.72033 0.59972
C12A C 0.776(1) 0.6096(11) 0.5754(4)
H8A H 0.70440 0.63750 0.57936
Nb10A Nb 0.55881(9) 0.10086(10) 1.03261(4)
Nb12A Nb 0.67014(9) -0.1393(1) 1.00333(4)
Cu5A Cu 0.73482(13) 0.04166(14) 0.96475(5)
O32A O 0.5150(7) 0.0221(7) 1.0791(3)
O33A O 0.6053(7) -0.1738(7) 1.0553(3)
O35A O 0.7956(7) -0.2403(8) 1.0046(3)
O36A O 0.6742(6) -0.0485(7) 0.9504(3)
O37A O 0.6863(6) -0.0303(7) 1.0285(3)
O38A O 0.6029(8) 0.1751(8) 1.0566(3)
O39A O 0.4097(7) 0.1940(7) 1.0243(3)
O40A O 0.5903(6) 0.1363(7) 0.9735(2)
N9A N 0.7946(9) 0.1411(11) 0.9714(4)
N10A N 0.8796(9) -0.0442(10) 0.9468(4)
C49A C 0.7510(15) 0.2337(14) 0.9840(5)
H33A H 0.68161 0.25945 0.99207
C50A C 0.8045(16) 0.2940(15) 0.9857(5)
H34A H 0.77044 0.36073 0.99295
C51A C 0.9081(16) 0.2535(16) 0.9765(5)
H35A H 0.94595 0.29139 0.97876
C52A C 0.9563(13) 0.1573(14) 0.9639(5)
C53A C 0.8962(11) 0.1052(13) 0.9621(4)
C54A C 1.0638(14) 0.1097(17) 0.9538(5)
H36A H 1.10439 0.14479 0.95600
C55A C 1.1075(14) 0.0177(17) 0.9414(5)
H37A H 1.17778 -0.01037 0.93457
C56A C 1.0481(13) -0.0399(14) 0.9382(5)
C57A C 0.9435(11) 0.0040(12) 0.9477(4)
C58A C 1.0865(13) -0.1381(16) 0.9238(5)
H38A H 1.15505 -0.16986 0.91492
C59A C 1.0228(15) -0.1843(15) 0.9233(6)
H39A H 1.04885 -0.25029 0.91530
C60A C 0.9158(12) -0.1348(15) 0.9347(5)
H40A H 0.87239 -0.16747 0.93335
Nb4A Nb 0.28270(9) -0.01325(8) 1.30901(3)
Nb5A Nb 0.31371(9) 0.04263(9) 1.21033(3)
Nb6A Nb 0.53127(9) -0.05398(9) 1.27302(4)
Nb7A Nb 0.39141(10) 0.13840(9) 1.32780(4)
Nb8A Nb 0.46718(9) -0.07496(10) 1.06470(3)
Nb9A Nb 0.42701(10) 0.19260(9) 1.22816(4)
Nb11A Nb 0.18892(10) 0.23286(9) 1.26663(4)
As1A As 0.4762(1) -0.26911(10) 1.30756(4)
As2A As 0.50469(10) -0.2113(1) 1.20897(4)
Cu1A Cu 0.25386(11) -0.24240(11) 1.34313(5)
Cu2A Cu 0.27541(12) -0.18023(11) 1.24390(5)
Cu4A Cu 0.30967(12) -0.11872(13) 1.14492(5)
O11A O 0.2438(7) -0.1022(6) 1.3413(3)
O12A O 0.3350(7) 0.0357(6) 1.3487(2)
O13A O 0.1616(6) 0.1134(6) 1.3000(3)
O14A O 0.2737(6) -0.0490(6) 1.2540(2)
O15A O 0.4201(8) 0.1773(7) 1.3706(3)
O16A O 0.4450(7) 0.2086(7) 1.2833(3)
O17A O 0.2510(7) 0.2395(6) 1.3141(3)
O18A O 0.5255(7) 0.0085(7) 1.3198(3)
O19A O 0.4779(8) 0.2717(8) 1.1974(3)
O20A O 0.2783(7) 0.2856(7) 1.2324(3)
O21A O 0.0666(8) 0.3393(7) 1.2641(3)
O22A O 0.1888(6) 0.1591(6) 1.2197(2)
O23A O 0.5523(7) 0.0536(7) 1.2369(3)
O24A O 0.6530(7) -0.1605(7) 1.2740(3)
O25A O 0.3862(7) 0.1250(6) 1.1891(2)
O26A O 0.2885(7) 0.0088(7) 1.1642(3)
O27A O 0.4423(6) -0.1305(6) 1.3046(2)
O28A O 0.3566(6) -0.2664(6) 1.2996(2)
O29A O 0.4674(6) -0.0828(6) 1.2231(2)
O30A O 0.3822(6) -0.2034(7) 1.2023(2)
O31A O 0.4322(7) -0.1252(7) 1.1118(3)
O41A O 0.5339(6) -0.2893(6) 1.2579(3)
O42A O 0.3593(6) 0.0753(6) 1.2691(2)
N3A N 0.1085(8) -0.1957(8) 1.3669(3)
N4A N 0.2274(8) -0.3682(8) 1.3362(3)
N5A N 0.1208(8) -0.1371(8) 1.2599(3)
N6A N 0.2585(9) -0.3060(8) 1.2315(3)
N7A N 0.1570(9) -0.0911(9) 1.1529(3)
N8A N 0.3169(9) -0.2460(9) 1.1255(3)
C13A C 0.0516(11) -0.1073(11) 1.3830(4)
H9A H 0.08144 -0.06253 1.38603
C14A C -0.0492(12) -0.0822(12) 1.3949(5)
H10A H -0.08617 -0.02260 1.40714
C15A C -0.0972(12) -0.1459(12) 1.3887(4)
H11A H -0.16642 -0.12777 1.39608
C16A C -0.0406(10) -0.2357(10) 1.3717(4)
C17A C 0.0633(10) -0.2592(10) 1.3621(4)
C18A C -0.0804(12) -0.3086(13) 1.3628(4)
H12A H -0.15017 -0.29379 1.36768
C19A C -0.0181(11) -0.3965(12) 1.3477(4)
H13A H -0.04578 -0.44128 1.34245
C20A C 0.0875(10) -0.4229(9) 1.3396(4)
C21A C 0.1285(10) -0.3522(10) 1.3452(4)
C22A C 0.1580(11) -0.5138(11) 1.3242(4)
H14A H 0.13608 -0.56375 1.31981
C23A C 0.2579(11) -0.5294(11) 1.3157(4)
H15A H 0.30424 -0.59046 1.30603
C24A C 0.2915(10) -0.4535(10) 1.3215(4)
H16A H 0.35947 -0.46364 1.31482
C25A C 0.0525(11) -0.0491(11) 1.2730(4)
H17A H 0.07436 0.00178 1.27614
C26A C -0.0498(12) -0.0308(12) 1.2821(4)
H18A H -0.09349 0.02922 1.29310
C27A C -0.0877(12) -0.1007(13) 1.2752(4)
H19A H -0.15740 -0.08641 1.27961
C28A C -0.0172(10) -0.1951(11) 1.2610(4)
C29A C 0.0886(10) -0.2086(10) 1.2526(4)
C30A C -0.0451(12) -0.2732(13) 1.2532(5)
H20A H -0.11283 -0.26593 1.25814
C31A C 0.0269(14) -0.3593(13) 1.2384(5)
H21A H 0.00594 -0.40847 1.23233
C32A C 0.1329(12) -0.3781(11) 1.2318(4)
C33A C 0.1606(10) -0.2991(9) 1.2382(4)
C34A C 0.2132(13) -0.4696(12) 1.2183(5)
H22A H 0.19793 -0.52380 1.21353
C35A C 0.3123(14) -0.4779(11) 1.2123(5)
H23A H 0.36508 -0.53763 1.20400
C36A C 0.0799(12) -0.0096(12) 1.1663(4)
H24A H 0.09257 0.04453 1.17283
C37A C -0.0209(13) -0.0045(15) 1.1705(5)
H25A H -0.07488 0.05450 1.17887
C38A C -0.0405(12) -0.0844(14) 1.1627(5)
H26A H -0.10677 -0.08173 1.16695
C39A C 0.0391(11) -0.1706(13) 1.1482(4)
C40A C 0.1380(11) -0.1693(11) 1.1425(4)
C41A C 0.0285(14) -0.2538(15) 1.1381(5)
H27A H -0.03680 -0.25398 1.14045
C42A C 0.1093(16) -0.3368(16) 1.1247(5)
H28A H 0.09916 -0.39319 1.11898
C43A C 0.2092(13) -0.3371(13) 1.1195(5)
C44A C 0.3329(12) -0.3927(11) 1.2192(4)
H29A H 0.40001 -0.39760 1.21505
C45A C 0.2985(16) -0.4195(14) 1.1070(6)
H30A H 0.29340 -0.47824 1.10085
C46A C 0.3914(16) -0.4156(13) 1.1037(6)
H31A H 0.45053 -0.47067 1.09559
C47A C 0.2243(11) -0.2541(11) 1.1292(4)
C48A C 0.3958(13) -0.3232(12) 1.1130(5)
H32A H 0.45920 -0.31881 1.10999
Cu1A* Cu 0.25386(11) 0.75760(11) 0.34313(5)
O10A* O 0.3586(6) -0.3266(7) 1.3929(2)
#END
