
#######################################################################
#
#                 Cambridge Crystallographic Data Centre
#                                CCDC
#
#######################################################################
#
# If this CIF has been generated from an entry in the Cambridge
# Structural Database, then it will include bibliographic, chemical,
# crystal, experimental, refinement or atomic coordinate data resulting
# from the CCDC's data processing and validation procedures.
#
#######################################################################

data_CSD_CIF_ZUKNAW
_audit_creation_date 2015-04-02
_audit_creation_method CSD-ConQuest-V1
_database_code_CSD ZUKNAW
_database_code_depnum_ccdc_archive 'CCDC 1057485'
_chemical_formula_sum 'C70 H137 Cu2 I2 Mn1 Mo6 N6 O25'
_chemical_formula_moiety
;
(C18 H20 Cu2 I2 Mn1 Mo6 N2 O24 3-)n,3n(C16 H36 N1 1+),n(C4 H9 N1 O1)
;
_journal_coden_Cambridge 179
_journal_volume 55
_journal_year 2016
_journal_page_first 6462
_journal_name_full 'Angew.Chem.,Int.Ed. '
loop_
_publ_author_name
"Xin-Xiong Li"
"Yang-Xin Wang"
"Rui-Hu Wang"
"Cai-Yan Cui"
"Chong-Bin Tian"
"Guo-Yu Yang"
_chemical_name_systematic
;
catena-(tris(tetra-n-butylammonium) 
bis(\m-2-(oxymethyl)-2-(pyridin-4-yl)propane-1,3-diolato)-bis(\m-iodo)-hexakis
(\m-oxo)-dodecaoxo-di-copper-di-manganese-hexa-molybdenum dimethylacetamide 
solvate)
;
_cell_volume  20253.221
_exptl_crystal_colour 'yellow'
_exptl_crystal_density_diffrn 1.623
_exptl_crystal_description 'block'
_diffrn_ambient_temperature 173
_refine_special_details
;
The solvent was taken into account using PLATON/SQUEEZE.

;
#These two values have been output from a single CSD field.
_refine_ls_R_factor_gt 0.0785
_refine_ls_wR_factor_gt 0.0785
_symmetry_cell_setting tetragonal
_symmetry_space_group_name_H-M 'P 43 21 2'
_symmetry_Int_Tables_number 96
loop_
_symmetry_equiv_pos_site_id
_symmetry_equiv_pos_as_xyz
1 x,y,z
2 1/2-y,1/2+x,3/4+z
3 -x,-y,1/2+z
4 1/2+y,1/2-x,1/4+z
5 1/2+x,1/2-y,1/4-z
6 1/2-x,1/2+y,3/4-z
7 y,x,-z
8 -y,-x,1/2-z
_cell_length_a 37.6898(7)
_cell_length_b 37.6898(7)
_cell_length_c 14.2576(4)
_cell_angle_alpha 90
_cell_angle_beta 90
_cell_angle_gamma 90
_cell_formula_units_Z 8
loop_
_atom_type_symbol
_atom_type_radius_bond
C 0.68
H 0.23
Cu 1.32
I 1.40
Mn 1.61
Mo 1.54
N 0.68
O 0.68
loop_
_atom_site_label
_atom_site_type_symbol
_atom_site_fract_x
_atom_site_fract_y
_atom_site_fract_z
Cu1 Cu 0.74181(3) 0.71656(3) 0.07992(10)
Cu2 Cu 0.74108(3) 0.78402(3) 0.04424(10)
I1 I 0.680933(16) 0.750165(19) 0.09254(6)
I2 I 0.798554(17) 0.753383(19) 0.13481(5)
Mn1 Mn 0.75107(3) 1.00104(3) 0.35318(8)
Mo1 Mo 0.70374(2) 1.039591(18) 0.18231(5)
Mo2 Mo 0.662574(19) 1.006216(19) 0.37134(6)
Mo3 Mo 0.70948(3) 0.96718(2) 0.54164(6)
Mo4 Mo 0.79225(2) 1.03386(2) 0.16307(6)
Mo5 Mo 0.83961(2) 0.99571(3) 0.33460(8)
Mo6 Mo 0.79781(3) 0.96294(2) 0.52487(7)
O1 O 0.71086(16) 0.98806(13) 0.2729(4)
O2 O 0.74987(17) 0.95640(14) 0.4192(4)
O3 O 0.75137(15) 1.04629(12) 0.2874(4)
O4 O 0.71531(15) 1.01839(13) 0.4508(4)
O5 O 0.79210(18) 1.01426(14) 0.4331(4)
O6 O 0.67716(15) 1.04643(14) 0.2987(4)
O7 O 0.74474(18) 1.01941(18) 0.1257(4)
O8 O 0.67719(17) 0.96473(15) 0.4375(4)
O9 O 0.82378(17) 0.95685(17) 0.4080(6)
O10 O 0.67157(19) 1.0216(2) 0.1116(5)
O11 O 0.7557(2) 0.98173(17) 0.5797(5)
O12 O 0.8648(2) 0.9734(3) 0.2545(8)
O13 O 0.8282(3) 0.9826(2) 0.5959(7)
O14 O 0.78732(17) 0.98368(15) 0.2555(5)
O15 O 0.7075(2) 1.08287(19) 0.1496(5)
O16 O 0.82499(16) 1.03723(18) 0.2674(6)
O17 O 0.6842(2) 0.9868(2) 0.6245(6)
O18 O 0.6376(2) 1.02771(18) 0.4524(5)
O19 O 0.8691(2) 1.0152(2) 0.4078(8)
O20 O 0.7096(2) 0.9242(2) 0.5714(5)
O21 O 0.7959(3) 0.92018(18) 0.5590(7)
O22 O 0.7920(2) 1.07785(19) 0.1331(6)
O23 O 0.63246(17) 0.98638(18) 0.2991(6)
O24 O 0.8157(2) 1.0121(3) 0.0784(7)
N1 N 0.7371(2) 0.8309(2) 0.1086(7)
N2 N 0.7596(2) 1.1724(2) 0.5902(8)
C1 C 0.7559(2) 1.07739(18) 0.3436(6)
H1 H 0.73620 1.09400 0.32970
H2 H 0.77830 1.08910 0.32520
C2 C 0.7567(2) 1.0705(2) 0.4513(6)
C3 C 0.7114(2) 0.9533(2) 0.2288(7)
H3 H 0.71050 0.95620 0.15980
H4 H 0.69010 0.93980 0.24830
C4 C 0.7792(3) 0.9488(2) 0.2182(7)
H5 H 0.79950 0.93280 0.23180
H6 H 0.77710 0.95070 0.14920
C5 C 0.7888(2) 1.0484(2) 0.4771(6)
H7 H 0.81030 1.06240 0.46200
H8 H 0.78850 1.04480 0.54590
C6 C 0.7231(2) 1.0534(2) 0.4888(6)
H9 H 0.72520 1.05150 0.55780
H10 H 0.70290 1.06930 0.47510
C7 C 0.7456(3) 0.9319(2) 0.2563(9)
C8 C 0.7463(3) 0.9243(2) 0.3618(7)
H11 H 0.72410 0.91190 0.37950
H12 H 0.76640 0.90820 0.37570
C9 C 0.7589(2) 1.1068(2) 0.4974(6)
C10 C 0.7359(3) 0.8628(3) 0.0604(11)
H13 H 0.73370 0.86270 -0.00600
C11 C 0.7408(3) 0.8963(2) 0.2063(8)
C12 C 0.7376(3) 0.8937(3) 0.1064(9)
H14 H 0.73670 0.91510 0.07100
C13 C 0.7357(3) 1.1651(3) 0.5232(8)
H15 H 0.71830 1.18240 0.50820
C14 C 0.7845(3) 1.1151(3) 0.5638(9)
H16 H 0.80180 1.09790 0.58070
C15 C 0.7356(3) 1.1329(2) 0.4747(8)
H17 H 0.71910 1.12920 0.42540
C16 C 0.7849(3) 1.1482(3) 0.6056(10)
H18 H 0.80390 1.15400 0.64680
C17 C 0.7395(3) 0.8328(3) 0.1971(10)
H19 H 0.74020 0.81110 0.23080
C18 C 0.7413(3) 0.8642(3) 0.2495(12)
H20 H 0.74280 0.86300 0.31600
N3 N 0.7351(3) 1.0315(4) -0.1566(10)
C19 C 0.7185(4) 1.0503(3) -0.2379(10)
H21 H 0.70360 1.03330 -0.27320
H22 H 0.73750 1.05860 -0.28050
C20 C 0.7547(4) 1.0003(4) -0.1978(12)
H23 H 0.77310 1.00950 -0.24120
H24 H 0.73780 0.98610 -0.23540
C21 C 0.7589(4) 1.0553(4) -0.0997(11)
H25 H 0.77010 1.04120 -0.04940
H26 H 0.74420 1.07390 -0.06950
C22 C 0.7025(5) 1.0183(5) -0.0911(14)
H27 H 0.71160 1.01060 -0.02920
H28 H 0.68560 1.03810 -0.08110
C23 C 0.6953(5) 1.0824(4) -0.2102(13)
H29 H 0.70870 1.09750 -0.16570
H30 H 0.67380 1.07370 -0.17750
C24 C 0.7882(4) 1.0735(4) -0.1579(12)
H31 H 0.77740 1.09070 -0.20190
H32 H 0.80120 1.05550 -0.19500
C25 C 0.8143(4) 1.0929(4) -0.0911(13)
H33 H 0.82470 1.07590 -0.04610
H34 H 0.80140 1.11140 -0.05510
C26 C 0.6839(4) 1.1052(4) -0.2956(13)
H35 H 0.70540 1.11630 -0.32280
H36 H 0.67380 1.08930 -0.34380
C27 C 0.7725(6) 0.9759(6) -0.1278(17)
H37 H 0.75490 0.96680 -0.08220
H38 H 0.79130 0.98870 -0.09310
C28 C 0.6840(6) 0.9882(6) -0.1377(16)
H39 H 0.70140 0.97230 -0.16830
H40 H 0.66740 0.99710 -0.18600
C29 C 0.8439(6) 1.1102(6) -0.1501(19)
H41 H 0.86100 1.12180 -0.10840
H42 H 0.83350 1.12790 -0.19250
H43 H 0.85600 1.09190 -0.18700
C30 C 0.6567(6) 1.1347(6) -0.2746(19)
H44 H 0.65110 1.14750 -0.33270
H45 H 0.66670 1.15130 -0.22870
H46 H 0.63500 1.12420 -0.24930
C31 C 0.7898(6) 0.9430(6) -0.190(2)
H47 H 0.79960 0.95110 -0.25030
H48 H 0.80820 0.92990 -0.15410
C32 C 0.6633(11) 0.9678(11) -0.060(4)
H49 H 0.67720 0.94720 -0.03730
H50 H 0.65820 0.98360 -0.00600
C33 C 0.631(1) 0.9562(9) -0.103(3)
H51 H 0.61610 0.94420 -0.05650
H52 H 0.63650 0.93970 -0.15430
H53 H 0.61830 0.97680 -0.12840
C34 C 0.7558(6) 0.9213(7) -0.202(2)
H54 H 0.76110 0.89950 -0.23620
H55 H 0.73830 0.93530 -0.23640
H56 H 0.74620 0.91520 -0.13970
N4 N 0.5785(4) 1.0849(3) 0.2510(11)
C35 C 0.6205(5) 1.1045(5) 0.1280(15)
H57 H 0.62380 1.07970 0.10620
H58 H 0.63860 1.10960 0.17630
C36 C 0.6037(4) 1.1321(4) 0.3629(13)
H59 H 0.57970 1.13920 0.38420
H60 H 0.61160 1.14840 0.31260
C37 C 0.6042(4) 1.0924(4) 0.3287(13)
H61 H 0.62850 1.08650 0.30700
H62 H 0.59860 1.07680 0.38250
C38 C 0.5850(4) 1.1090(4) 0.1671(11)
H63 H 0.56720 1.10380 0.11800
H64 H 0.58190 1.13400 0.18660
C39 C 0.6308(6) 1.1317(6) 0.4469(17)
H65 H 0.62410 1.11380 0.49460
H66 H 0.65530 1.12680 0.42480
C40 C 0.5845(5) 1.0496(5) 0.2288(14)
H67 H 0.58170 1.03510 0.28630
H68 H 0.60920 1.04690 0.20690
C41 C 0.5280(7) 1.0736(6) 0.3762(19)
H69 H 0.52690 1.04770 0.36450
H70 H 0.54610 1.07750 0.42540
C42 C 0.5420(5) 1.0923(5) 0.2815(13)
H71 H 0.52590 1.08530 0.22990
H72 H 0.53970 1.11830 0.28960
C43 C 0.6275(7) 1.1692(7) 0.485(3)
H73 H 0.64400 1.17230 0.53780
H74 H 0.60320 1.17320 0.50690
H75 H 0.63330 1.18630 0.43560
C44 C 0.6248(6) 1.1328(6) 0.0372(17)
H76 H 0.60420 1.14220 0.00780
C45 C 0.5717(9) 0.9986(9) 0.138(3)
H77 H 0.56270 0.98310 0.18920
H78 H 0.59790 0.99770 0.13900
C46 C 0.5597(7) 1.0354(8) 0.154(2)
H79 H 0.53470 1.03590 0.17600
H80 H 0.56150 1.04950 0.09580
C47 C 0.6618(9) 1.1437(12) 0.002(5)
H81 H 0.65920 1.15940 -0.05280
H82 H 0.67510 1.12250 -0.01630
H83 H 0.67450 1.15630 0.05160
C48 C 0.4920(7) 1.0850(7) 0.416(2)
H84 H 0.49080 1.10840 0.44130
C49 C 0.5579(13) 0.9853(14) 0.044(3)
H85 H 0.56230 0.95970 0.03900
H86 H 0.57030 0.99760 -0.00680
H87 H 0.53240 0.98990 0.03940
C50 C 0.4578(13) 1.063(2) 0.421(10)
H88 H 0.43990 1.07630 0.45680
H89 H 0.46260 1.04050 0.45250
H90 H 0.44910 1.05870 0.35760
N5 N 0.9303(10) 0.9303(10) 0.50000
C51 C 0.8841(9) 0.8993(8) 0.626(2)
H91 H 0.86700 0.91760 0.60480
H92 H 0.88890 0.90280 0.69310
C52 C 0.9187(8) 0.9027(10) 0.570(3)
H93 H 0.93760 0.90240 0.61770
H94 H 0.92080 0.87990 0.53570
C53 C 0.8685(14) 0.8622(12) 0.609(3)
H95 H 0.84830 0.86350 0.56510
H96 H 0.88670 0.84610 0.58290
C54 C 0.941(3) 0.9651(14) 0.572(4)
H97 H 0.91580 0.96850 0.59290
H98 H 0.95080 0.94980 0.62140
C55 C 0.9537(17) 0.9996(18) 0.618(8)
H99 H 0.96920 1.01270 0.57380
H100 H 0.96760 0.99400 0.67490
C56 C 0.9214(16) 1.0224(15) 0.644(5)
H101 H 0.93050 1.03100 0.70490
H102 H 0.90550 1.00260 0.66150
C57 C 0.8922(16) 1.0507(15) 0.632(5)
H103 H 0.89550 1.06930 0.67910
H104 H 0.86890 1.03960 0.64040
H105 H 0.89380 1.06100 0.56910
C58 C 0.8559(13) 0.8486(13) 0.705(3)
H106 H 0.84680 0.82430 0.69830
H107 H 0.83710 0.86400 0.72890
H108 H 0.87590 0.84860 0.74910
N6 N 0.9345(8) 1.0655(8) 0.25000
C59 C 0.9181(8) 1.0925(8) 0.313(2)
H109 H 0.91580 1.11070 0.26370
H110 H 0.94080 1.09880 0.34420
C60 C 0.9572(14) 1.0509(12) 0.326(3)
H111 H 0.96460 1.03010 0.29230
C61 C 0.8951(10) 1.1132(11) 0.3847(17)
H112 H 0.88430 1.09660 0.43030
H113 H 0.91000 1.13030 0.41970
C62 C 0.8660(11) 1.1329(13) 0.332(3)
H114 H 0.84560 1.11670 0.32270
H115 H 0.87510 1.13940 0.26880
C63 C 0.9707(16) 1.081(2) 0.388(7)
H116 H 0.96400 1.10440 0.36030
H117 H 0.95990 1.07960 0.45130
C64 C 1.0112(16) 1.0787(15) 0.396(5)
H118 H 1.01150 1.05950 0.44350
H119 H 1.01500 1.06610 0.33630
C65 C 1.0500(16) 1.090(3) 0.410(9)
H120 H 1.05190 1.11590 0.40180
H121 H 1.06500 1.07820 0.36370
H122 H 1.05780 1.08370 0.47340
C66 C 0.853(2) 1.1667(18) 0.380(6)
H123 H 0.83890 1.18090 0.33610
H124 H 0.87320 1.18060 0.40230
H125 H 0.83800 1.16020 0.43420
H126? H 0.97110 1.07080 0.30620
Cu1E Cu 0.75819(3) 1.21656(3) 0.67008(10)
Cu1F Cu 0.71656(3) 0.74181(3) -0.07992(10)
Cu2F Cu 0.78402(3) 0.74108(3) -0.04424(10)
I1F I 0.750165(16) 0.680933(19) -0.09254(6)
I2F I 0.753383(17) 0.798554(19) -0.13481(5)
N2E N 0.7404(2) 0.6724(2) 0.1598(8)
C51F C 0.8993(9) 0.8841(8) 0.374(2)
H91F H 0.91760 0.86700 0.39520
H92F H 0.90280 0.88890 0.30690
C52F C 0.9027(8) 0.9187(10) 0.430(3)
H93F H 0.90240 0.93760 0.38230
H94F H 0.87990 0.92080 0.46430
C53F C 0.8622(14) 0.8685(12) 0.391(3)
H95F H 0.86350 0.84830 0.43490
H96F H 0.84610 0.88670 0.41710
C54F C 0.9651(30) 0.9410(14) 0.428(4)
H97F H 0.96850 0.91580 0.40710
H98F H 0.94980 0.95080 0.37860
C55F C 0.9996(17) 0.9537(18) 0.382(8)
H99F H 1.01270 0.96920 0.42620
H100F H 0.99400 0.96760 0.32510
C56F C 1.0224(16) 0.9214(15) 0.356(5)
H101F H 1.03100 0.93050 0.29510
H102F H 1.00260 0.90550 0.33850
C57F C 1.0507(16) 0.8922(15) 0.368(5)
H103F H 1.06930 0.89550 0.32090
H104F H 1.03960 0.86890 0.35960
H105F H 1.06100 0.89380 0.43090
C58F C 0.8486(13) 0.8559(13) 0.295(3)
H106F H 0.82430 0.84680 0.30170
H107F H 0.86400 0.83710 0.27110
H108F H 0.84860 0.87590 0.25090
C59G C 0.9075(8) 1.0819(8) 0.187(2)
H109G H 0.88930 1.08420 0.23630
H110G H 0.90120 1.05920 0.15580
C60G C 0.9491(14) 1.0428(12) 0.174(3)
H111G H 0.96990 1.03540 0.20770
C61G C 0.8868(10) 1.1049(11) 0.1153(17)
H112G H 0.90340 1.11570 0.06970
H113G H 0.86970 1.09000 0.08030
C62G C 0.8671(11) 1.1340(13) 0.168(3)
H114G H 0.88330 1.15440 0.17730
H115G H 0.86060 1.12490 0.23120
C63G C 0.9190(16) 1.0293(20) 0.112(7)
H116G H 0.89560 1.03600 0.13970
H117G H 0.92040 1.04010 0.04870
C64G C 0.9213(16) 0.9888(15) 0.104(5)
H118G H 0.94050 0.98850 0.05650
H119G H 0.93390 0.98500 0.16370
C65G C 0.9100(16) 0.950(3) 0.090(9)
H120G H 0.88410 0.94810 0.09820
H121G H 0.92180 0.93500 0.13630
H122G H 0.91630 0.94220 0.02660
C66G C 0.8333(20) 1.1470(18) 0.120(6)
H123G H 0.81910 1.16110 0.16390
H124G H 0.81940 1.12680 0.09770
H125G H 0.83980 1.16200 0.06580
#END
