
#######################################################################
#
#                 Cambridge Crystallographic Data Centre
#                                CCDC
#
#######################################################################
#
# If this CIF has been generated from an entry in the Cambridge
# Structural Database, then it will include bibliographic, chemical,
# crystal, experimental, refinement or atomic coordinate data resulting
# from the CCDC's data processing and validation procedures.
#
#######################################################################

data_CSD_CIF_ZUKSAC
_audit_creation_date 2020-01-16
_audit_creation_method CSD-ConQuest-V1
_database_code_CSD ZUKSAC
_database_code_depnum_ccdc_archive 'CCDC 1969081'
_chemical_formula_sum 'C6 H18 Ga1 Mg1 Na1 O21'
_chemical_formula_moiety
;
(C6 Ga1 Na1 O12 2-)n,H12 Mg1 O6 2+,3(H2 O1)
;
_journal_coden_Cambridge 1147
_journal_volume 20
_journal_year 2020
_journal_page_first 525
_journal_name_full 'Cryst.Growth Des. '
loop_
_publ_author_name
"I.Huskic"
"T.Friscic"
_chemical_name_systematic
;
catena-(hexa-aqua-magnesium tris(\m-oxalato)-gallium-sodium trihydrate)
;
_cell_volume   3123.405
_exptl_crystal_colour 'colorless'
_exptl_crystal_density_diffrn 1.733
_exptl_crystal_description 'hexagonal prism'
_exptl_crystal_preparation 'water'
_diffrn_ambient_temperature 100
_diffrn_special_details
;
twin

;
#These two values have been output from a single CSD field.
_refine_ls_R_factor_gt 0.0252
_refine_ls_wR_factor_gt 0.0252
_symmetry_cell_setting hexagonal
_symmetry_space_group_name_H-M 'P 3 c 1'
_symmetry_Int_Tables_number 158
loop_
_symmetry_equiv_pos_site_id
_symmetry_equiv_pos_as_xyz
1 x,y,z
2 -y,x-y,z
3 -x+y,-x,z
4 -y,-x,1/2+z
5 -x+y,y,1/2+z
6 x,x-y,1/2+z
_cell_length_a 16.9345(13)
_cell_length_b 16.9345(13)
_cell_length_c 12.5763(9)
_cell_angle_alpha 90
_cell_angle_beta 90
_cell_angle_gamma 120
_cell_formula_units_Z 6
loop_
_atom_type_symbol
_atom_type_radius_bond
C 0.68
H 0.23
Ga 1.22
Mg 1.41
Na 1.66
O 0.68
loop_
_atom_site_label
_atom_site_type_symbol
_atom_site_fract_x
_atom_site_fract_y
_atom_site_fract_z
Ga1 Ga 0.67060(5) 0.66190(4) 0.24892(7)
Na1 Na 0.3287(2) 0.3373(2) 0.2514(4)
C1 C 0.8138(3) 0.6350(2) 0.2973(3)
O1 O 0.72089(19) 0.7747(2) 0.3331(3)
C2 C 0.8434(3) 0.6955(2) 0.1962(3)
O2 O 0.7122(2) 0.9016(2) 0.3417(3)
C3 C 0.6959(3) 0.8298(2) 0.2995(3)
O3 O 0.6183(2) 0.72224(19) 0.1620(3)
C4 C 0.6398(2) 0.8027(2) 0.1954(3)
O4 O 0.6184(2) 0.8542(2) 0.1530(3)
C5 C 0.5225(3) 0.4952(3) 0.1957(3)
O5 O 0.7806(2) 0.7087(2) 0.1592(3)
O6 O 0.7356(2) 0.6161(2) 0.3354(3)
C6 C 0.4975(3) 0.5274(3) 0.2989(3)
O7 O 0.8638(2) 0.6093(2) 0.3324(3)
O8 O 0.60509(19) 0.5485(2) 0.1638(3)
O9 O 0.9203(2) 0.7256(2) 0.1583(3)
O10 O 0.5616(2) 0.6016(2) 0.3400(3)
O11 O 0.4205(2) 0.4815(2) 0.3339(3)
O12 O 0.4662(2) 0.4247(2) 0.1516(3)
Mg1 Mg 0.66667 0.33333 0.7463(3)
O13 O 0.74778(15) 0.44438(16) 0.65070(18)
H1 H 0.718(2) 0.446(2) 0.5882(18)
H2 H 0.8102(10) 0.4868(19) 0.643(3)
O14 O 0.77938(16) 0.36428(18) 0.8398(2)
H3 H 0.793(2) 0.3170(18) 0.845(3)
H4 H 0.824(2) 0.409(2) 0.885(3)
Mg2 Mg 0.33333 0.66667 0.7397(3)
O15 O 0.36243(18) 0.58453(16) 0.64352(19)
H5 H 0.399(2) 0.619(2) 0.5860(19)
H6 H 0.346(2) 0.5224(11) 0.639(3)
O16 O 0.44585(17) 0.69907(19) 0.8327(2)
H7 H 0.457(2) 0.6508(17) 0.843(4)
H8 H 0.490(2) 0.746(2) 0.879(3)
Mg3 Mg 1.00000 1.00000 0.7533(3)
O17 O 0.88877(18) 0.91836(17) 0.6591(2)
H9 H 0.851(2) 0.8556(10) 0.653(3)
H10 H 0.886(3) 0.945(2) 0.5943(18)
O18 O 1.11286(19) 1.08052(18) 0.8483(2)
H11 H 1.156(2) 1.073(3) 0.887(3)
H12 H 1.127(2) 1.1409(12) 0.858(3)
O19 O 0.83642(18) 0.9951(2) 0.5000(3)
H13 H 0.7805(14) 0.9514(18) 0.474(2)
H14 H 0.816(2) 1.017(2) 0.555(2)
O20 O 0.49739(16) 0.6742(2) 0.4939(2)
H15 H 0.518(2) 0.6354(19) 0.470(3)
H16 H 0.5385(19) 0.702(2) 0.549(2)
O21 O 0.6616(2) 0.49041(14) 0.4988(2)
H17 H 0.7033(18) 0.5476(13) 0.472(2)
H18 H 0.636(2) 0.507(2) 0.553(2)
Na1A Na 0.6627(2) 0.9914(2) 0.2514(4)
Na1B Na 1.0086(2) 0.6713(2) 0.2514(4)
O2B O 0.1894(2) 0.2878(2) 0.3417(3)
O4B O 0.2358(2) 0.3816(2) 0.1530(3)
O7A O 0.3907(2) 0.2545(2) 0.3324(3)
O9A O 0.2744(2) 0.1947(2) 0.1583(3)
O13A O 0.55562(15) 0.30340(16) 0.65070(18)
H1A H 0.554(2) 0.272(2) 0.5882(18)
H2A H 0.5132(10) 0.3234(19) 0.643(3)
O14A O 0.63572(16) 0.41510(18) 0.8398(2)
H3A H 0.683(2) 0.4760(18) 0.845(3)
H4A H 0.591(2) 0.415(2) 0.885(3)
O13B O 0.69660(15) 0.25222(16) 0.65070(18)
H1B H 0.728(2) 0.282(2) 0.5882(18)
H2B H 0.6766(10) 0.1898(19) 0.643(3)
O14B O 0.58490(16) 0.22062(18) 0.8398(2)
H3B H 0.524(2) 0.2070(18) 0.845(3)
H4B H 0.585(2) 0.176(2) 0.885(3)
O15A O 0.41547(18) 0.77790(16) 0.64352(19)
H5A H 0.381(2) 0.780(2) 0.5860(19)
H6A H 0.4776(20) 0.8236(11) 0.639(3)
O16A O 0.30093(17) 0.74678(19) 0.8327(2)
H7A H 0.3492(20) 0.8062(17) 0.843(4)
H8A H 0.254(2) 0.744(2) 0.879(3)
O15B O 0.22210(18) 0.63757(16) 0.64352(19)
H5B H 0.220(2) 0.601(2) 0.5860(19)
H6B H 0.1764(20) 0.6540(11) 0.639(3)
O16B O 0.25322(17) 0.55415(19) 0.8327(2)
H7B H 0.1938(20) 0.5430(17) 0.843(4)
H8B H 0.256(2) 0.510(2) 0.879(3)
O17A O 1.08164(18) 0.97041(17) 0.6591(2)
H9A H 1.1444(20) 0.9954(10) 0.653(3)
H10A H 1.055(3) 0.941(2) 0.5943(18)
O18A O 0.91948(19) 1.03234(18) 0.8483(2)
H11A H 0.927(2) 1.083(3) 0.887(3)
H12A H 0.8591(20) 0.9861(12) 0.858(3)
O17B O 1.02959(18) 1.11123(17) 0.6591(2)
H9B H 1.0046(20) 1.149(1) 0.653(3)
H10B H 1.059(3) 1.114(2) 0.5943(18)
O18B O 0.96766(19) 0.88714(18) 0.8483(2)
H11B H 0.917(2) 0.844(3) 0.887(3)
H12B H 1.0139(20) 0.8730(12) 0.858(3)
#END
