
#######################################################################
#
#                 Cambridge Crystallographic Data Centre
#                                CCDC
#
#######################################################################
#
# If this CIF has been generated from an entry in the Cambridge
# Structural Database, then it will include bibliographic, chemical,
# crystal, experimental, refinement or atomic coordinate data resulting
# from the CCDC's data processing and validation procedures.
#
#######################################################################

data_CSD_CIF_ZUMNIG
_audit_creation_date 2015-09-02
_audit_creation_method CSD-ConQuest-V1
_database_code_CSD ZUMNIG
_database_code_depnum_ccdc_archive 'CCDC 1030875'
_chemical_formula_sum 'C16 H38 Cu2 Mo5 N6 O34 P2'
_chemical_formula_moiety
;
(C16 H20 Cu2 Mo5 N6 O26 P2 2-)n,6n(H2 O1),2n(H3 O1 1+)
;
_journal_coden_Cambridge 1295
_journal_volume 60
_journal_year 2015
_journal_page_first 33
_journal_name_full 'Inorg.Chem.Commun. '
loop_
_publ_author_name
"Gonghao Hu"
"Yayu Dong"
"Xingxiang He"
"Hao Miao"
"Shuai Zhou"
"Yan Xu"
_chemical_name_systematic
;
catena-(bis(Oxonium) 
bis(\m~6~-phosphato)-heptakis(\m~2~-oxo)-triaqua-bis(2-(1H-imidazol-2-yl)pyrid
ine)-octaoxo-di-copper-penta-molybdenum hexahydrate)
;
_cell_volume   4393.135
_exptl_crystal_colour 'blue'
_exptl_crystal_density_diffrn 2.312
_exptl_crystal_description 'Plate'
_diffrn_ambient_temperature 296
_refine_special_details
;
O8WA and O8WB and O8WC disordered over three sites with occupancies 
0.33:0.33:0.33.
;
#These two values have been output from a single CSD field.
_refine_ls_R_factor_gt 0.0413
_refine_ls_wR_factor_gt 0.0413
_symmetry_cell_setting monoclinic
_symmetry_space_group_name_H-M 'P 21/c'
_symmetry_Int_Tables_number 14
loop_
_symmetry_equiv_pos_site_id
_symmetry_equiv_pos_as_xyz
1 x,y,z
2 -x,1/2+y,1/2-z
3 -x,-y,-z
4 x,-1/2-y,-1/2+z
_cell_length_a 18.0533(12)
_cell_length_b 19.1184(13)
_cell_length_c 13.6751(9)
_cell_angle_alpha 90
_cell_angle_beta 111.447(1)
_cell_angle_gamma 90
_cell_formula_units_Z 4
loop_
_atom_type_symbol
_atom_type_radius_bond
C 0.68
H 0.23
Cu 1.32
Mo 1.54
N 0.68
O 0.68
P 1.05
loop_
_atom_site_label
_atom_site_type_symbol
_atom_site_fract_x
_atom_site_fract_y
_atom_site_fract_z
Mo1 Mo 0.16661(3) 0.35130(3) 0.35237(5)
Mo2 Mo 0.10993(3) 0.53636(3) 0.31360(4)
Mo3 Mo 0.38054(3) 0.50848(3) 0.66097(4)
Mo4 Mo 0.31353(3) 0.34532(3) 0.59238(5)
Mo5 Mo 0.26673(3) 0.62314(3) 0.48286(5)
Cu1 Cu 0.39584(5) 0.46448(4) 0.23647(6)
Cu2 Cu 0.12015(5) 0.52111(4) 0.73842(6)
P1 P 0.30939(10) 0.46680(9) 0.39494(13)
P2 P 0.17869(9) 0.47677(9) 0.55919(13)
O1 O 0.3745(2) 0.4935(2) 0.3585(3)
O2 O 0.1065(2) 0.5054(2) 0.4699(3)
O3 O 0.2053(2) 0.4088(2) 0.5201(3)
O4 O 0.2506(2) 0.5268(2) 0.3917(3)
O5 O 0.4791(3) 0.4895(2) 0.6871(4)
O6 O 0.3829(3) 0.5561(2) 0.7681(4)
O7 O 0.1577(2) 0.4592(2) 0.6548(3)
O8 O 0.2624(2) 0.4081(2) 0.3247(3)
O9 O 0.3691(2) 0.5807(2) 0.5610(3)
O10 O 0.2469(2) 0.5318(2) 0.5883(3)
O11 O 0.1129(2) 0.4377(2) 0.3038(3)
O12 O 0.2618(3) 0.3090(2) 0.4522(3)
O13 O 0.3431(2) 0.4222(2) 0.6916(3)
O14 O 0.1553(3) 0.6174(2) 0.3989(3)
O15 O 0.3492(2) 0.4411(2) 0.5099(3)
O16 O 0.2589(3) 0.6778(2) 0.5775(4)
O17 O 0.2961(3) 0.6767(2) 0.4030(4)
O18 O 0.1277(3) 0.5579(3) 0.2022(4)
O19 O 0.0999(3) 0.3106(2) 0.3971(4)
O20 O 0.0111(3) 0.5550(3) 0.2781(4)
O21 O 0.4056(3) 0.3104(2) 0.6160(4)
O22 O 0.2716(3) 0.2932(3) 0.6606(4)
O23 O 0.0365(3) 0.5672(3) 0.6107(4)
O24 O 0.2050(3) 0.6103(3) 0.7427(4)
O25 O 0.1547(3) 0.3050(2) 0.2422(4)
O26 O 0.4352(3) 0.3706(3) 0.2999(4)
N1 N 0.1702(3) 0.4582(3) 0.8691(4)
N2 N 0.3417(3) 0.5497(3) 0.1529(4)
N3 N 0.0856(3) 0.5729(3) 0.8380(4)
N4 N 0.4103(3) 0.4414(3) 0.1038(4)
N5 N 0.0796(4) 0.5816(3) 0.9933(5)
H1 H 0.08580 0.57210 1.05730
C1 C 0.1491(4) 0.4779(4) 0.9513(5)
C2 C 0.3846(4) 0.4926(4) 0.0330(6)
N6 N 0.3976(4) 0.4761(4) -0.0535(5)
H2 H 0.38580 0.50130 -0.10930
C3 C 0.1050(4) 0.5416(4) 0.9298(5)
C4 C 0.3461(4) 0.5530(4) 0.0562(5)
C5 C 0.2123(4) 0.4000(4) 0.8777(6)
H3 H 0.22820 0.38700 0.82280
C6 C 0.0463(4) 0.6330(4) 0.8414(6)
H4 H 0.02540 0.66450 0.78630
C7 C 0.0426(5) 0.6395(4) 0.9388(6)
H5 H 0.01950 0.67580 0.96310
C8 C 0.3052(4) 0.6017(4) 0.1816(6)
H6 H 0.30090 0.60000 0.24730
C9 C 0.2329(5) 0.3583(4) 0.9659(6)
H7 H 0.26080 0.31690 0.96930
C10 C 0.2123(5) 0.3782(4) 1.0474(7)
H8 H 0.22740 0.35100 1.10790
C11 C 0.2781(6) 0.6616(5) 0.0214(7)
H9 H 0.25630 0.69940 -0.02250
C12 C 0.1694(5) 0.4382(4) 1.0415(6)
H10 H 0.15430 0.45180 1.09680
C13 C 0.2736(5) 0.6579(4) 0.1173(7)
H11 H 0.24890 0.69360 0.14020
C14 C 0.3156(5) 0.6085(4) -0.0109(6)
H12 H 0.32030 0.61010 -0.07640
C15 C 0.4409(5) 0.3914(5) 0.0581(6)
H13 H 0.46370 0.34940 0.08880
C16 C 0.4325(5) 0.4130(5) -0.0379(7)
H14 H 0.44820 0.38860 -0.08590
O27 O 0.3599(3) 0.2664(3) 0.3503(4)
O28 O 0.4846(3) 0.6032(3) 0.4644(5)
O29 O 0.0964(4) 0.3185(3) 0.6060(5)
O30 O 0.0702(3) 0.6884(3) 0.4966(5)
O31 O 0.1501(4) 0.7475(3) 0.2329(6)
O32 O 0.5504(5) 0.2872(5) 0.2762(7)
O33 O -0.0045(5) 0.6931(5) 1.1763(9)
O34 O 0.5356(11) 0.2532(9) 0.0049(18)
O35? O 0.5795(9) 0.2459(8) 0.1130(12)
O36? O 0.5150(9) 0.283(1) -0.0773(14)
Cu1B Cu 0.60416(5) 0.53552(4) 0.76353(6)
Cu2B Cu -0.12015(5) 0.47889(4) 0.26158(6)
O5B O 0.5209(3) 0.5105(2) 0.3129(4)
O20B O -0.0111(3) 0.4450(3) 0.7219(4)
#END
