
#######################################################################
#
#                 Cambridge Crystallographic Data Centre
#                                CCDC
#
#######################################################################
#
# If this CIF has been generated from an entry in the Cambridge
# Structural Database, then it will include bibliographic, chemical,
# crystal, experimental, refinement or atomic coordinate data resulting
# from the CCDC's data processing and validation procedures.
#
#######################################################################

data_CSD_CIF_ZUSCOI
_audit_creation_date 2020-06-19
_audit_creation_method CSD-ConQuest-V1
_database_code_CSD ZUSCOI
_database_code_depnum_ccdc_archive 'CCDC 1982318'
_chemical_formula_sum 'C117 H133 Cd3 N7 O26'
_chemical_formula_moiety
;
(C84 H44 Cd3 O16 2-)n,2n(C4 H12 N1 1+),5n(C5 H11 N1 O1),5n(H2 O1)
;
_journal_coden_Cambridge 2020
_journal_volume 5
_journal_year 2020
_journal_page_first 6537
_journal_name_full 'Chem. Sel. '
loop_
_publ_author_name
"A.Aleksovska"
"Haldor Zaake-Hertling"
"P.Lonnecke"
"B.Schwarze"
"Daniel Grasing"
"J.Matysik"
"L.Blomer"
"B.Kersting"
"E.Hey-Hawkins"
_chemical_name_systematic
;
catena-(bis(diethylammonium) 
bis(\m-2,6,9,10-tetrakis(4-carboxylatophenyl)anthracene)-tri-cadmium 
N,N-diethylformamide solvate pentahydrate)
;
_cell_volume   3412.278
_exptl_crystal_colour 'light yellow'
_exptl_crystal_density_diffrn 1.163
_exptl_crystal_description 'needle'
_diffrn_ambient_temperature 130
_refine_special_details
;
The SQUEEZE/PLATON program was used to model the disordered cations and 
solvent molecules.
;
#These two values have been output from a single CSD field.
_refine_ls_R_factor_gt 0.0474
_refine_ls_wR_factor_gt 0.0474
_symmetry_cell_setting triclinic
_symmetry_space_group_name_H-M 'P -1'
_symmetry_Int_Tables_number 2
loop_
_symmetry_equiv_pos_site_id
_symmetry_equiv_pos_as_xyz
1 x,y,z
2 -x,-y,-z
_cell_length_a 13.4594(3)
_cell_length_b 17.2712(4)
_cell_length_c 17.7349(4)
_cell_angle_alpha 61.602(2)
_cell_angle_beta 70.240(2)
_cell_angle_gamma 79.748(2)
_cell_formula_units_Z 1
loop_
_atom_type_symbol
_atom_type_radius_bond
C 0.68
H 0.23
Cd 1.44
O 0.68
loop_
_atom_site_label
_atom_site_type_symbol
_atom_site_fract_x
_atom_site_fract_y
_atom_site_fract_z
Cd1 Cd 0.94384(2) -0.14009(2) 0.24253(2)
Cd2 Cd 1.00000 0.00000 0.00000
O1 O 0.8563(2) -0.00462(14) 0.25065(15)
O2 O 0.98869(17) -0.00079(12) 0.13479(13)
O3 O 0.9751(2) 0.16288(18) 0.64721(17)
O4 O 1.1217(2) 0.22901(17) 0.60871(16)
O5 O 0.9220(2) 0.20325(17) -0.17794(18)
O6 O 0.8975(2) 0.11767(15) -0.03170(16)
O7 O 0.1704(2) 0.18878(18) -0.21400(17)
O8 O 0.14950(19) 0.08578(15) -0.07160(16)
C1 C 0.9241(3) 0.03708(18) 0.1795(2)
C2 C 0.9361(2) 0.13368(17) 0.14489(19)
C3 C 0.8612(3) 0.18190(19) 0.1811(2)
H1 H 0.80058 0.15379 0.22896
C4 C 0.8739(3) 0.27171(18) 0.1480(2)
H2 H 0.82100 0.30509 0.17197
C5 C 0.9636(2) 0.31224(17) 0.08014(19)
C6 C 1.0389(3) 0.26227(19) 0.0461(2)
H3 H 1.10145 0.28923 0.00036
C7 C 1.0247(3) 0.17379(19) 0.0776(2)
H4 H 1.07658 0.14068 0.05245
C8 C 0.9794(2) 0.40837(17) 0.04066(19)
C9 C 0.9982(2) 0.44475(17) 0.0904(2)
C10 C 1.0003(3) 0.39167(19) 0.1803(2)
H5 H 0.98516 0.33086 0.20829
C11 C 1.0235(3) 0.4261(2) 0.2278(2)
C12 C 1.0445(3) 0.5179(2) 0.1857(2)
H6 H 1.06011 0.54211 0.21842
C13 C 1.0426(3) 0.57091(19) 0.1007(2)
H7 H 1.05715 0.63162 0.07477
C14 C 1.0192(2) 0.53743(18) 0.04914(19)
C15 C 1.0302(3) 0.3697(2) 0.3201(2)
C16 C 0.9611(3) 0.3024(2) 0.3811(2)
H8 H 0.90846 0.29110 0.36313
C17 C 0.9664(3) 0.2508(2) 0.4677(2)
H9 H 0.91759 0.20489 0.50869
C18 C 1.0431(3) 0.2663(2) 0.4946(2)
C19 C 1.1142(3) 0.3324(2) 0.4341(2)
H10 H 1.16833 0.34250 0.45133
C20 C 1.1062(3) 0.3838(2) 0.3481(2)
H11 H 1.15442 0.43016 0.30718
C21 C 1.0471(4) 0.2155(2) 0.5896(2)
C22 C 0.8808(3) 0.1848(2) -0.0972(2)
C23 C 0.8001(3) 0.2500(2) -0.0766(2)
C24 C 0.7749(3) 0.3262(2) -0.1447(2)
H12 H 0.80863 0.33758 -0.20540
C25 C 0.7008(3) 0.3862(2) -0.1253(2)
H13 H 0.68352 0.43790 -0.17264
C26 C 0.6526(3) 0.3714(2) -0.0384(2)
C27 C 0.6780(3) 0.2953(2) 0.0299(3)
H14 H 0.64500 0.28411 0.09056
C28 C 0.7514(3) 0.2354(2) 0.0101(2)
H15 H 0.76810 0.18337 0.05748
C29 C 0.5739(3) 0.4365(2) -0.0171(3)
C30 C 0.4732(3) 0.4455(2) -0.0292(2)
C31 C 0.4422(3) 0.3896(2) -0.0558(2)
H16 H 0.49041 0.34576 -0.06579
C32 C 0.3452(3) 0.3977(2) -0.0671(2)
C33 C 0.2725(3) 0.4640(2) -0.0526(2)
H17 H 0.20560 0.47148 -0.06255
C34 C 0.2984(3) 0.5161(2) -0.0247(3)
H18 H 0.24795 0.55809 -0.01302
C35 C 0.3998(3) 0.5099(2) -0.0124(2)
C36 C 0.3111(3) 0.3368(2) -0.0908(2)
C37 C 0.2555(3) 0.3688(2) -0.1533(2)
H19 H 0.24194 0.43027 -0.18341
C38 C 0.2195(3) 0.3111(2) -0.1718(2)
H20 H 0.18566 0.33379 -0.21751
C39 C 0.2322(3) 0.2214(2) -0.1247(2)
C40 C 0.2881(3) 0.1891(2) -0.0624(3)
H21 H 0.29848 0.12745 -0.03025
C41 C 0.3286(3) 0.2466(2) -0.0469(3)
H22 H 0.36887 0.22407 -0.00568
C42 C 0.1785(3) 0.1600(2) -0.1366(3)
O1A O 1.1437(2) 1.00462(14) -0.25065(15)
O2A O 1.01131(17) 1.00079(12) -0.13479(13)
O3A O 1.0249(2) 0.83712(18) -0.64721(17)
O4A O 0.8783(2) 0.77099(17) -0.60871(16)
C1A C 1.0759(3) 0.96292(18) -0.1795(2)
C2A C 1.0639(2) 0.86632(17) -0.14489(19)
C3A C 1.1388(3) 0.81810(19) -0.1811(2)
H1A H 1.19942 0.84621 -0.22896
C4A C 1.1261(3) 0.72829(18) -0.1480(2)
H2A H 1.17900 0.69491 -0.17197
C5A C 1.0364(2) 0.68776(17) -0.08014(19)
C6A C 0.9611(3) 0.73773(19) -0.0461(2)
H3A H 0.89855 0.71077 -0.00036
C7A C 0.9753(3) 0.82621(19) -0.0776(2)
H4A H 0.92342 0.85932 -0.05245
C8A C 1.0206(2) 0.59163(17) -0.04066(19)
C9A C 1.0018(2) 0.55525(17) -0.0904(2)
C10A C 0.9997(3) 0.60833(19) -0.1803(2)
H5A H 1.01484 0.66914 -0.20829
C11A C 0.9765(3) 0.5739(2) -0.2278(2)
C12A C 0.9555(3) 0.4821(2) -0.1857(2)
H6A H 0.93989 0.45789 -0.21842
C13A C 0.9574(3) 0.42909(19) -0.1007(2)
H7A H 0.94285 0.36838 -0.07477
C14A C 0.9808(2) 0.46257(18) -0.04914(19)
C15A C 0.9698(3) 0.6303(2) -0.3201(2)
C16A C 1.0389(3) 0.6976(2) -0.3811(2)
H8A H 1.09154 0.70890 -0.36313
C17A C 1.0336(3) 0.7492(2) -0.4677(2)
H9A H 1.08241 0.79511 -0.50869
C18A C 0.9569(3) 0.7337(2) -0.4946(2)
C19A C 0.8858(3) 0.6676(2) -0.4341(2)
H10A H 0.83167 0.65750 -0.45133
C20A C 0.8938(3) 0.6162(2) -0.3481(2)
H11A H 0.84558 0.56984 -0.30718
C21A C 0.9529(4) 0.7845(2) -0.5896(2)
O5A O 0.0780(2) 0.79675(17) 0.17794(18)
O6A O 0.1025(2) 0.88233(15) 0.03170(16)
O7A O 0.8296(2) 0.81122(18) 0.21400(17)
O8A O 0.85050(19) 0.91422(15) 0.07160(16)
C22A C 0.1192(3) 0.8152(2) 0.0972(2)
C23A C 0.1999(3) 0.7500(2) 0.0766(2)
C24A C 0.2251(3) 0.6738(2) 0.1447(2)
H12A H 0.19137 0.66242 0.20540
C25A C 0.2992(3) 0.6138(2) 0.1253(2)
H13A H 0.31648 0.56210 0.17264
C26A C 0.3474(3) 0.6286(2) 0.0384(2)
C27A C 0.3220(3) 0.7047(2) -0.0299(3)
H14A H 0.35500 0.71589 -0.09056
C28A C 0.2486(3) 0.7646(2) -0.0101(2)
H15A H 0.23190 0.81663 -0.05748
C29A C 0.4261(3) 0.5635(2) 0.0171(3)
C30A C 0.5268(3) 0.5545(2) 0.0292(2)
C31A C 0.5578(3) 0.6104(2) 0.0558(2)
H16A H 0.50959 0.65424 0.06579
C32A C 0.6548(3) 0.6023(2) 0.0671(2)
C33A C 0.7275(3) 0.5360(2) 0.0526(2)
H17A H 0.79440 0.52852 0.06255
C34A C 0.7016(3) 0.4839(2) 0.0247(3)
H18A H 0.75205 0.44191 0.01302
C35A C 0.6002(3) 0.4901(2) 0.0124(2)
C36A C 0.6889(3) 0.6632(2) 0.0908(2)
C37A C 0.7445(3) 0.6312(2) 0.1533(2)
H19A H 0.75806 0.56973 0.18341
C38A C 0.7805(3) 0.6889(2) 0.1718(2)
H20A H 0.81434 0.66621 0.21751
C39A C 0.7678(3) 0.7786(2) 0.1247(2)
C40A C 0.7119(3) 0.8109(2) 0.0624(3)
H21A H 0.70152 0.87255 0.03025
C41A C 0.6714(3) 0.7534(2) 0.0469(3)
H22A H 0.63113 0.77593 0.00568
C42A C 0.8215(3) 0.8400(2) 0.1366(3)
Cd1A Cd 0.05616(2) 0.14009(2) -0.24253(2)
Cd1* Cd -0.05616(2) 0.85991(2) 0.24253(2)
Cd1** Cd 0.94384(2) 0.85991(2) -0.75747(2)
Cd1*** Cd 0.94384(2) 0.85991(2) 0.24253(2)
Cd1A* Cd 1.05616(2) 0.14009(2) -0.24253(2)
Cd1A** Cd 1.05616(2) 0.14009(2) 0.75747(2)
Cd1A*** Cd 1.05616(2) 1.14009(2) -0.24253(2)
Cd2* Cd 0.00000 0.00000 0.00000
Cd2** Cd 0.00000 1.00000 0.00000
Cd2*** Cd 1.00000 1.00000 0.00000
O1A* O 0.1437(2) 0.00462(14) -0.25065(15)
O2A* O 0.01131(17) 0.00079(12) -0.13479(13)
O2A** O 1.01131(17) 0.00079(12) -0.13479(13)
O3* O -0.0249(2) 0.16288(18) -0.35279(17)
O3A* O 1.0249(2) -0.16288(18) 0.35279(17)
O4* O 0.1217(2) 0.22901(17) -0.39129(16)
O4A* O 0.8783(2) -0.22901(17) 0.39129(16)
O5* O -0.0780(2) 0.20325(17) -0.17794(18)
O5A* O 1.0780(2) -0.20325(17) 0.17794(18)
O6A* O 1.1025(2) -0.11767(15) 0.03170(16)
O7A* O 0.8296(2) -0.18878(18) 0.21400(17)
O8* O 1.14950(19) 0.08578(15) -0.07160(16)
O8A* O 0.85050(19) -0.08578(15) 0.07160(16)
#END
