
#######################################################################
#
#                 Cambridge Crystallographic Data Centre
#                                CCDC
#
#######################################################################
#
# If this CIF has been generated from an entry in the Cambridge
# Structural Database, then it will include bibliographic, chemical,
# crystal, experimental, refinement or atomic coordinate data resulting
# from the CCDC's data processing and validation procedures.
#
#######################################################################

data_CSD_CIF_ZUSDEZ
_audit_creation_date 2020-06-19
_audit_creation_method CSD-ConQuest-V1
_database_code_CSD ZUSDEZ
_database_code_depnum_ccdc_archive 'CCDC 1982317'
_chemical_formula_sum 'C120 H140 Co3 N10 O28 S4'
_chemical_formula_moiety
;
(C84 H44 Co3 O16 2-)n,2n(C2 H8 N1 1+),8n(C3 H7 N1 O1),4n(C2 H6 O1 S1)
;
_journal_coden_Cambridge 2020
_journal_volume 5
_journal_year 2020
_journal_page_first 6537
_journal_name_full 'Chem. Sel. '
loop_
_publ_author_name
"A.Aleksovska"
"Haldor Zaake-Hertling"
"P.Lonnecke"
"B.Schwarze"
"Daniel Grasing"
"J.Matysik"
"L.Blomer"
"B.Kersting"
"E.Hey-Hawkins"
_chemical_name_systematic
;
catena-(bis(dimethylammonium) 
bis(\m-2,6,9,10-tetrakis(4-carboxylatophenyl)anthracene)-tri-cobalt 
N,N-dimethylformamide dimethyl sulfoxide solvate)
;
_cell_volume   3105.761
_exptl_crystal_colour 'pale pink'
_exptl_crystal_density_diffrn 1.324
_exptl_crystal_description 'plate'
_diffrn_ambient_temperature 130
_refine_special_details
;
The SQUEEZE/PLATON program was used to model the cations and solvent 
molecules.
;
#These two values have been output from a single CSD field.
_refine_ls_R_factor_gt 0.0943
_refine_ls_wR_factor_gt 0.0943
_symmetry_cell_setting triclinic
_symmetry_space_group_name_H-M 'P -1'
_symmetry_Int_Tables_number 2
loop_
_symmetry_equiv_pos_site_id
_symmetry_equiv_pos_as_xyz
1 x,y,z
2 -x,-y,-z
_cell_length_a 13.3473(8)
_cell_length_b 16.8933(14)
_cell_length_c 16.9561(14)
_cell_angle_alpha 111.241(7)
_cell_angle_beta 100.051(6)
_cell_angle_gamma 111.337(7)
_cell_formula_units_Z 1
loop_
_atom_type_symbol
_atom_type_radius_bond
C 0.68
H 0.23
Co 1.26
O 0.68
loop_
_atom_site_label
_atom_site_type_symbol
_atom_site_fract_x
_atom_site_fract_y
_atom_site_fract_z
Co1 Co -0.16837(10) 0.75605(9) -0.14009(8)
Co2 Co 0.00000 1.00000 0.00000
O1 O -0.0990(6) 0.7311(5) -0.0216(5)
O2 O -0.1101(4) 0.8631(4) -0.0089(3)
O3 O -0.6503(6) 0.3309(5) 0.1398(5)
O4 O -0.7415(6) 0.3822(5) 0.2305(5)
O5 O 0.2359(5) 1.1865(5) 0.2029(4)
O6 O 0.1214(5) 1.0274(4) 0.1131(4)
O7 O 1.0326(5) 1.2158(5) 0.1791(4)
O8 O 0.9172(4) 1.0629(4) 0.0803(4)
C1 C -0.0942(7) 0.8116(8) 0.0282(7)
C2 C -0.0791(7) 0.8426(7) 0.1241(6)
C3 C -0.0392(7) 0.8019(6) 0.1707(6)
H1 H -0.02447 0.75017 0.14034
C4 C -0.0207(7) 0.8371(7) 0.2620(6)
H2 H 0.00896 0.81053 0.29485
C5 C -0.0448(7) 0.9099(7) 0.3056(6)
C6 C -0.0902(8) 0.9482(7) 0.2571(6)
H3 H -0.11009 0.99710 0.28585
C7 C -0.1055(7) 0.9125(7) 0.1653(6)
H4 H -0.13515 0.93819 0.13134
C8 C -0.0231(7) 0.9545(7) 0.4049(6)
C9 C -0.0884(7) 0.9055(7) 0.4428(6)
C10 C -0.1803(7) 0.8109(7) 0.3888(6)
H5 H -0.19462 0.78025 0.32575
C11 C -0.2498(8) 0.7617(7) 0.4245(7)
C12 C -0.2231(8) 0.8057(8) 0.5175(7)
H6 H -0.26662 0.77049 0.54307
C13 C -0.1351(7) 0.8995(7) 0.5756(6)
H7 H -0.12437 0.92776 0.63812
C14 C -0.0632(7) 0.9515(7) 0.5420(6)
C15 C -0.3478(9) 0.6682(8) 0.3699(7)
C16 C -0.3541(9) 0.5987(8) 0.2917(8)
H8 H -0.28749 0.61207 0.27543
C17 C -0.4505(10) 0.5105(8) 0.2349(7)
H9 H -0.45193 0.46485 0.18095
C18 C -0.5479(9) 0.4937(9) 0.2640(9)
C19 C -0.5468(11) 0.5607(9) 0.3379(8)
H10 H -0.61341 0.54996 0.35404
C20 C -0.4497(9) 0.6428(8) 0.3880(7)
H11 H -0.44991 0.68827 0.44114
C21 C -0.6500(11) 0.3967(9) 0.2072(8)
C22 C 0.2004(8) 1.1004(8) 0.1805(6)
C23 C 0.2654(7) 1.0765(7) 0.2435(6)
C24 C 0.3600(7) 1.1490(7) 0.3200(6)
H12 H 0.38604 1.21366 0.33103
C25 C 0.4179(7) 1.1287(7) 0.3813(6)
H13 H 0.48316 1.17925 0.43274
C26 C 0.3805(8) 1.0361(8) 0.3672(6)
C27 C 0.2909(8) 0.9625(7) 0.2912(6)
H14 H 0.26786 0.89777 0.27889
C28 C 0.2327(7) 0.9852(8) 0.2309(6)
H15 H 0.16800 0.93421 0.17931
C29 C 0.4415(7) 1.0173(7) 0.4352(6)
C30 C 0.5507(8) 1.0312(6) 0.4449(6)
C31 C 0.6100(8) 1.0598(7) 0.3892(6)
H16 H 0.56850 1.06549 0.34179
C32 C 0.7239(8) 1.0799(7) 0.3996(6)
C33 C 0.7825(8) 1.0646(7) 0.4670(7)
H17 H 0.85943 1.07538 0.47516
C34 C 0.7280(7) 1.0342(6) 0.5208(6)
H18 H 0.76902 1.02442 0.56508
C35 C 0.6128(7) 1.0169(7) 0.5122(6)
C36 C 0.7768(8) 1.1026(7) 0.3371(6)
C37 C 0.8907(8) 1.1670(6) 0.3685(6)
H19 H 0.93346 1.20241 0.43161
C38 C 0.9431(8) 1.1802(6) 0.3073(6)
H20 H 1.02151 1.22622 0.32890
C39 C 0.8819(8) 1.1266(7) 0.2141(6)
C40 C 0.7694(8) 1.0651(7) 0.1841(6)
H21 H 0.72683 1.02980 0.12102
C41 C 0.7155(8) 1.0529(7) 0.2440(7)
H22 H 0.63562 1.01013 0.22187
C42 C 0.9508(8) 1.1358(8) 0.1517(7)
O1A O 0.0990(6) 1.2689(5) 1.0216(5)
O2A O 0.1101(4) 1.1369(4) 1.0089(3)
O3A O 0.6503(6) 1.6691(5) 0.8602(5)
O4A O 0.7415(6) 1.6178(5) 0.7695(5)
C1A C 0.0942(7) 1.1884(8) 0.9718(7)
C2A C 0.0791(7) 1.1574(7) 0.8759(6)
C3A C 0.0392(7) 1.1981(6) 0.8293(6)
H1A H 0.02447 1.24983 0.85966
C4A C 0.0207(7) 1.1629(7) 0.7380(6)
H2A H -0.00896 1.18947 0.70515
C5A C 0.0448(7) 1.0901(7) 0.6944(6)
C6A C 0.0902(8) 1.0518(7) 0.7429(6)
H3A H 0.11009 1.00290 0.71415
C7A C 0.1055(7) 1.0875(7) 0.8347(6)
H4A H 0.13515 1.06181 0.86866
C8A C 0.0231(7) 1.0455(7) 0.5951(6)
C9A C 0.0884(7) 1.0945(7) 0.5572(6)
C10A C 0.1803(7) 1.1891(7) 0.6112(6)
H5A H 0.19462 1.21975 0.67425
C11A C 0.2498(8) 1.2383(7) 0.5755(7)
C12A C 0.2231(8) 1.1943(8) 0.4825(7)
H6A H 0.26662 1.22951 0.45693
C13A C 0.1351(7) 1.1005(7) 0.4244(6)
H7A H 0.12437 1.07224 0.36188
C14A C 0.0632(7) 1.0485(7) 0.4580(6)
C15A C 0.3478(9) 1.3318(8) 0.6301(7)
C16A C 0.3541(9) 1.4013(8) 0.7083(8)
H8A H 0.28749 1.38793 0.72457
C17A C 0.4505(10) 1.4895(8) 0.7651(7)
H9A H 0.45193 1.53515 0.81905
C18A C 0.5479(9) 1.5063(9) 0.7360(9)
C19A C 0.5468(11) 1.4393(9) 0.6621(8)
H10A H 0.61341 1.45004 0.64596
C20A C 0.4497(9) 1.3572(8) 0.6120(7)
H11A H 0.44991 1.31173 0.55886
C21A C 0.6500(11) 1.6033(9) 0.7928(8)
O5A O 0.7641(5) 0.8135(5) 0.7971(4)
O6A O 0.8786(5) 0.9726(4) 0.8869(4)
O7A O -0.0326(5) 0.7842(5) 0.8209(4)
O8A O 0.0828(4) 0.9371(4) 0.9197(4)
C22A C 0.7996(8) 0.8996(8) 0.8195(6)
C23A C 0.7346(7) 0.9235(7) 0.7565(6)
C24A C 0.6400(7) 0.8510(7) 0.6800(6)
H12A H 0.61396 0.78634 0.66897
C25A C 0.5821(7) 0.8713(7) 0.6187(6)
H13A H 0.51684 0.82075 0.56726
C26A C 0.6195(8) 0.9639(8) 0.6328(6)
C27A C 0.7091(8) 1.0375(7) 0.7088(6)
H14A H 0.73214 1.10223 0.72111
C28A C 0.7673(7) 1.0148(8) 0.7691(6)
H15A H 0.83200 1.06579 0.82069
C29A C 0.5585(7) 0.9827(7) 0.5648(6)
C30A C 0.4493(8) 0.9688(6) 0.5551(6)
C31A C 0.3900(8) 0.9402(7) 0.6108(6)
H16A H 0.43150 0.93451 0.65821
C32A C 0.2761(8) 0.9201(7) 0.6004(6)
C33A C 0.2175(8) 0.9354(7) 0.5330(7)
H17A H 0.14057 0.92462 0.52484
C34A C 0.2720(7) 0.9658(6) 0.4792(6)
H18A H 0.23098 0.97558 0.43492
C35A C 0.3872(7) 0.9831(7) 0.4878(6)
C36A C 0.2232(8) 0.8974(7) 0.6629(6)
C37A C 0.1093(8) 0.8330(6) 0.6315(6)
H19A H 0.06654 0.79759 0.56839
C38A C 0.0569(8) 0.8198(6) 0.6927(6)
H20A H -0.02151 0.77378 0.67110
C39A C 0.1181(8) 0.8734(7) 0.7859(6)
C40A C 0.2306(8) 0.9349(7) 0.8159(6)
H21A H 0.27317 0.97020 0.87898
C41A C 0.2845(8) 0.9471(7) 0.7560(7)
H22A H 0.36438 0.98987 0.77813
C42A C 0.0492(8) 0.8642(8) 0.8483(7)
Co1A Co -0.83163(10) 0.24395(9) 0.14009(8)
Co1* Co -0.16837(10) 0.75605(9) 0.85991(8)
Co1** Co 0.83163(10) 0.75605(9) 0.85991(8)
Co1*** Co 0.83163(10) 1.75605(9) 0.85991(8)
Co1A* Co 0.16837(10) 1.24395(9) 0.14009(8)
Co1A** Co 0.16837(10) 1.24395(9) 1.14009(8)
Co1A*** Co 1.16837(10) 1.24395(9) 0.14009(8)
Co2* Co 0.00000 1.00000 1.00000
Co2** Co 1.00000 1.00000 0.00000
Co2*** Co 1.00000 1.00000 1.00000
O1A* O -0.9010(6) 0.2689(5) 0.0216(5)
O2A* O -0.8899(4) 0.1369(4) 0.0089(3)
O2A** O 0.1101(4) 1.1369(4) 0.0089(3)
O3A* O -0.3497(6) 0.6691(5) -0.1398(5)
O4A* O -0.2585(6) 0.6178(5) -0.2305(5)
O5* O -0.7641(5) 0.1865(5) 0.2029(4)
O5A* O -0.2359(5) 0.8135(5) -0.2029(4)
O6A* O -0.1214(5) 0.9726(4) -0.1131(4)
O7* O -0.9674(5) 0.2158(5) 0.1791(4)
O7A* O -0.0326(5) 0.7842(5) -0.1791(4)
O8* O -0.0828(4) 1.0629(4) 0.0803(4)
O8A* O 0.0828(4) 0.9371(4) -0.0803(4)
#END
