
#######################################################################
#
#                 Cambridge Crystallographic Data Centre
#                                CCDC
#
#######################################################################
#
# If this CIF has been generated from an entry in the Cambridge
# Structural Database, then it will include bibliographic, chemical,
# crystal, experimental, refinement or atomic coordinate data resulting
# from the CCDC's data processing and validation procedures.
#
#######################################################################

data_CSD_CIF_ZUTPUB
_audit_creation_date 2015-09-07
_audit_creation_method CSD-ConQuest-V1
_database_code_CSD ZUTPUB
_database_code_depnum_ccdc_archive 'CCDC 1402020'
_chemical_formula_sum 'C18 H30 Fe7 N2 O40'
_chemical_formula_moiety
;
(C18 H22 Fe7 O40 2-)n,2n(H4 N1 1+)
;
_journal_coden_Cambridge 182
_journal_volume 51
_journal_year 2015
_journal_page_first 15336
_journal_name_full 'Chem.Commun. '
loop_
_publ_author_name
"Qi-Long Wu"
"Song-De Han"
"Qing-Lun Wang"
"Jiong-Peng Zhao"
"Feng Ma"
"Xue Jiang"
"Fu-Chen Liu"
"Xian-He Bu"
_chemical_name_systematic
;
catena-[bis(ammonium) 
hexadecakis(\m-formato)-bis(\m-oxo)-diaqua-bis(formato)-hepta-iron]
;
_cell_volume   1025.904
_exptl_crystal_colour 'brown'
_exptl_crystal_density_diffrn 2.113
_exptl_crystal_description 'block'
_diffrn_ambient_temperature 293
#These two values have been output from a single CSD field.
_refine_ls_R_factor_gt 0.0884
_refine_ls_wR_factor_gt 0.0884
_symmetry_cell_setting triclinic
_symmetry_space_group_name_H-M 'P -1'
_symmetry_Int_Tables_number 2
loop_
_symmetry_equiv_pos_site_id
_symmetry_equiv_pos_as_xyz
1 x,y,z
2 -x,-y,-z
_cell_length_a 6.8366(14)
_cell_length_b 10.967(2)
_cell_length_c 14.884(3)
_cell_angle_alpha 111.35(3)
_cell_angle_beta 97.42(3)
_cell_angle_gamma 92.39(3)
_cell_formula_units_Z 1
loop_
_atom_type_symbol
_atom_type_radius_bond
C 0.68
H 0.23
Fe 1.52
N 0.68
O 0.68
loop_
_atom_site_label
_atom_site_type_symbol
_atom_site_fract_x
_atom_site_fract_y
_atom_site_fract_z
O1 O 0.9969(10) 0.7701(6) 0.1167(5)
C1 C 0.8369(14) 0.7171(9) 0.0634(7)
H1 H 0.74590 0.77240 0.05170
Fe1 Fe 0.50000 0.50000 0.00000
Fe2 Fe 0.08487(19) -0.04253(13) 0.21015(9)
Fe3 Fe 0.16393(19) 0.19804(13) 0.43013(9)
Fe4 Fe 0.30007(19) 0.25087(13) 0.23808(9)
O2 O 0.1386(10) 0.2718(6) 0.5730(4)
O3 O 0.1863(8) 0.1326(6) 0.2925(4)
O4 O 0.3371(9) -0.0848(6) 0.1463(5)
O5 O -0.0563(10) 0.0129(7) 0.1028(4)
O6 O 0.7887(9) 0.5978(6) 0.0248(4)
O7 O -0.1207(10) 0.1190(7) 0.4090(5)
O8 O 0.1958(11) -0.1275(6) 0.3042(5)
O9 O 0.4445(10) 0.2875(7) 0.4699(5)
O10 O 0.1672(10) 0.4119(6) 0.3121(5)
O11 O 0.0458(10) 0.3638(6) 0.4277(5)
O12 O 0.0607(10) 0.2194(7) 0.1331(5)
O13 O 0.4117(9) 0.3681(6) 0.1729(5)
O14 O 0.4493(10) 0.1094(7) 0.1467(5)
O15 O 0.6356(9) 0.3977(7) 0.0844(5)
C2 C 0.2551(15) -0.0801(11) 0.3940(8)
H2 H 0.29510 -0.13940 0.42250
O16 O 0.2566(11) 0.3377(7) 0.7300(5)
O17 O 0.2670(11) 0.0388(7) 0.4505(5)
O18 O 0.5456(10) 0.3076(7) 0.3397(5)
O19 O -0.1795(10) -0.0368(7) 0.2585(5)
C3 C 0.2667(15) 0.2823(11) 0.6446(7)
H3 H 0.38250 0.24270 0.63010
C4 C 0.5848(14) 0.365(1) 0.1506(7)
H4 H 0.68110 0.33620 0.18630
C5 C 0.0598(15) 0.4308(9) 0.3768(7)
H5 H -0.01660 0.50150 0.38790
C6 C 0.5690(14) 0.3204(9) 0.4259(7)
H6 H 0.69200 0.35850 0.46240
C7 C 0.4508(14) -0.0107(10) 0.1254(7)
H7 H 0.54830 -0.05040 0.08950
C8 C -0.0619(14) 0.1216(10) 0.0929(7)
H8 H -0.16950 0.12980 0.05110
C9 C -0.2260(15) 0.0330(11) 0.3374(7)
H9 H -0.35750 0.01950 0.34440
O20 O 0.4331(10) 0.6482(6) 0.1317(4)
H10 H 0.42220 0.73020 0.14880
H11 H 0.50340 0.66840 0.18740
N1 N 0.9393(12) 0.4665(9) 0.8320(6)
H12 H 0.84380 0.44870 0.85790
H13 H 1.00070 0.41840 0.78790
H14 H 0.89990 0.50530 0.79390
H15 H 1.01290 0.48670 0.88570
O1A O 0.0031(10) 0.2299(6) -0.1167(5)
C1A C 0.1631(14) 0.2829(9) -0.0634(7)
H1A H 0.25410 0.22760 -0.05170
Fe2A Fe 0.91513(19) 1.04253(13) -0.21015(9)
Fe3A Fe 0.83607(19) 0.80196(13) -0.43013(9)
Fe4A Fe 0.69993(19) 0.74913(13) -0.23808(9)
O2A O 0.8614(10) 0.7282(6) -0.5730(4)
O3A O 0.8137(8) 0.8674(6) -0.2925(4)
O4A O 0.6629(9) 1.0848(6) -0.1463(5)
O5A O 1.0563(10) 0.9871(7) -0.1028(4)
O6A O 0.2113(9) 0.4022(6) -0.0248(4)
O7A O 1.1207(10) 0.8810(7) -0.4090(5)
O8A O 0.8042(11) 1.1275(6) -0.3042(5)
O9A O 0.5555(10) 0.7125(7) -0.4699(5)
O10A O 0.8328(10) 0.5881(6) -0.3121(5)
O11A O 0.9542(10) 0.6362(6) -0.4277(5)
O12A O 0.9393(10) 0.7806(7) -0.1331(5)
O13A O 0.5883(9) 0.6319(6) -0.1729(5)
O14A O 0.5507(10) 0.8906(7) -0.1467(5)
O15A O 0.3644(9) 0.6023(7) -0.0844(5)
C2A C 0.7449(15) 1.0801(11) -0.3940(8)
H2A H 0.70490 1.13940 -0.42250
O16A O 0.7434(11) 0.6623(7) -0.7300(5)
O17A O 0.7330(11) 0.9612(7) -0.4505(5)
O18A O 0.4544(10) 0.6924(7) -0.3397(5)
O19A O 1.1795(10) 1.0368(7) -0.2585(5)
C3A C 0.7333(15) 0.7177(11) -0.6446(7)
H3A H 0.61750 0.75730 -0.63010
C4A C 0.4152(14) 0.635(1) -0.1506(7)
H4A H 0.31890 0.66380 -0.18630
C5A C 0.9402(15) 0.5692(9) -0.3768(7)
H5A H 1.01660 0.49850 -0.38790
C6A C 0.4310(14) 0.6796(9) -0.4259(7)
H6A H 0.30800 0.64150 -0.46240
C7A C 0.5492(14) 1.0107(10) -0.1254(7)
H7A H 0.45170 1.05040 -0.08950
C8A C 1.0619(14) 0.8784(10) -0.0929(7)
H8A H 1.16950 0.87020 -0.05110
C9A C 1.2260(15) 0.9670(11) -0.3374(7)
H9A H 1.35750 0.98050 -0.34440
O20A O 0.5669(10) 0.3518(6) -0.1317(4)
H10A H 0.57780 0.26980 -0.14880
H11A H 0.49660 0.33160 -0.18740
O1* O -0.0031(10) -0.2299(6) 0.1167(5)
O1A* O 1.0031(10) 1.2299(6) -0.1167(5)
Fe2* Fe 1.08487(19) 0.95747(13) 0.21015(9)
Fe2A* Fe -0.08487(19) 0.04253(13) -0.21015(9)
#END
