
#######################################################################
#
#                 Cambridge Crystallographic Data Centre
#                                CCDC
#
#######################################################################
#
# If this CIF has been generated from an entry in the Cambridge
# Structural Database, then it will include bibliographic, chemical,
# crystal, experimental, refinement or atomic coordinate data resulting
# from the CCDC's data processing and validation procedures.
#
#######################################################################

data_CSD_CIF_ZUTQEM
_audit_creation_date 2015-09-07
_audit_creation_method CSD-ConQuest-V1
_database_code_CSD ZUTQEM
_database_code_depnum_ccdc_archive 'CCDC 1402022'
_chemical_formula_sum 'C18 H30 Fe6 Mg1 N2 O40'
_chemical_formula_moiety
;
(C18 H22 Fe6 Mg1 O40 2-)n,2n(H4 N1 1+)
;
_journal_coden_Cambridge 182
_journal_volume 51
_journal_year 2015
_journal_page_first 15336
_journal_name_full 'Chem.Commun. '
loop_
_publ_author_name
"Qi-Long Wu"
"Song-De Han"
"Qing-Lun Wang"
"Jiong-Peng Zhao"
"Feng Ma"
"Xue Jiang"
"Fu-Chen Liu"
"Xian-He Bu"
_chemical_name_systematic
;
catena-[bis(ammonium) 
hexadecakis(\m-formato)-bis(\m-oxo)-diaqua-bis(formato)-hexa-iron-magnesium]
;
_cell_volume   1008.792
_exptl_crystal_colour 'red'
_exptl_crystal_density_diffrn 2.097
_exptl_crystal_description 'block'
_diffrn_ambient_temperature 293
#These two values have been output from a single CSD field.
_refine_ls_R_factor_gt 0.035
_refine_ls_wR_factor_gt 0.035
_symmetry_cell_setting triclinic
_symmetry_space_group_name_H-M 'P -1'
_symmetry_Int_Tables_number 2
loop_
_symmetry_equiv_pos_site_id
_symmetry_equiv_pos_as_xyz
1 x,y,z
2 -x,-y,-z
_cell_length_a 6.8025(14)
_cell_length_b 10.887(2)
_cell_length_c 14.826(3)
_cell_angle_alpha 111.43(3)
_cell_angle_beta 97.52(3)
_cell_angle_gamma 92.24(3)
_cell_formula_units_Z 1
loop_
_atom_type_symbol
_atom_type_radius_bond
C 0.68
H 0.23
Fe 1.52
Mg 1.41
N 0.68
O 0.68
loop_
_atom_site_label
_atom_site_type_symbol
_atom_site_fract_x
_atom_site_fract_y
_atom_site_fract_z
Fe1 Fe 0.33418(7) 0.30223(5) 0.06940(3)
Fe2 Fe 0.19961(7) 0.24986(5) 0.26152(3)
Fe3 Fe 0.41351(7) 0.54375(5) 0.28954(3)
Mg1 Mg 0.00000 0.00000 0.50000
O1 O 0.3122(3) 0.3670(2) 0.20770(16)
O2 O 0.4980(4) 0.2680(2) 0.61703(18)
O3 O 0.1609(4) 0.5855(2) 0.35302(19)
O4 O 0.2841(3) 0.0969(2) 0.52580(17)
O5 O 0.5556(4) 0.4884(2) 0.39647(17)
O6 O -0.1306(4) 0.1009(3) 0.41673(19)
O7 O 0.6182(4) 0.3823(3) 0.09084(19)
O8 O 0.4398(4) 0.2814(3) 0.36647(19)
O9 O 0.0899(4) 0.1345(2) 0.32762(19)
O10 O 0.3329(4) 0.0882(2) 0.18852(19)
O11 O 0.0528(4) 0.2105(3) 0.02913(19)
O12 O 0.4532(4) 0.1358(3) 0.07175(18)
O13 O 0.3016(4) 0.6281(3) 0.19514(19)
O14 O 0.2401(4) 0.1609(3) -0.23120(19)
O15 O 0.0653(4) -0.1455(3) 0.3716(2)
O16 O 0.0524(4) 0.3906(3) 0.3536(2)
O17 O 0.2294(4) 0.4626(3) 0.04960(19)
C1 C 0.2417(6) 0.5802(4) 0.1043(3)
H1 H 0.20240 0.63980 0.07530
O18 O 0.3592(4) 0.2278(3) -0.07416(18)
O19 O -0.0471(4) 0.1909(3) 0.1608(2)
O20 O 0.6788(4) 0.5376(3) 0.24143(19)
C2 C 0.3369(5) 0.2174(3) 0.5636(3)
H2 H 0.24870 0.27430 0.55090
C3 C -0.0807(5) 0.1354(4) 0.3506(3)
H3 H -0.17920 0.16420 0.31530
C4 C 0.5610(5) 0.3804(4) 0.4074(3)
H4 H 0.66750 0.37340 0.45090
C5 C 0.0477(5) 0.5119(4) 0.3743(3)
H5 H -0.05150 0.55160 0.40950
C6 C 0.4376(5) 0.0690(4) 0.1224(3)
H6 H 0.51200 -0.00370 0.10990
C7 C 0.7257(6) 0.4672(4) 0.1618(3)
H7 H 0.85790 0.47970 0.15460
C8 C -0.0702(5) 0.1792(4) 0.0730(3)
H8 H -0.19470 0.14270 0.03640
C9 C 0.2285(6) 0.2151(4) -0.1451(3)
H9 H 0.10960 0.25100 -0.13030
H10 H 0.090(7) -0.220(5) 0.379(3)
H11 H -0.009(9) -0.144(6) 0.328(4)
N1 N 0.5589(6) 0.0335(4) 0.6673(3)
H12 H 0.68690 0.00970 0.64960
H13 H 0.53690 0.12510 0.68290
H14 H 0.45010 0.00780 0.61380
H15 H 0.583(10) 0.007(7) 0.695(5)
Fe1A Fe -0.33418(7) -0.30223(5) 0.93060(3)
Fe2A Fe -0.19961(7) -0.24986(5) 0.73848(3)
Fe3A Fe -0.41351(7) -0.54375(5) 0.71046(3)
O1A O -0.3122(3) -0.3670(2) 0.79230(16)
O2A O -0.4980(4) -0.2680(2) 0.38297(18)
O3A O -0.1609(4) -0.5855(2) 0.64698(19)
O4A O -0.2841(3) -0.0969(2) 0.47420(17)
O5A O -0.5556(4) -0.4884(2) 0.60353(17)
O6A O 0.1306(4) -0.1009(3) 0.58327(19)
O7A O -0.6182(4) -0.3823(3) 0.90916(19)
O8A O -0.4398(4) -0.2814(3) 0.63353(19)
O9A O -0.0899(4) -0.1345(2) 0.67238(19)
O10A O -0.3329(4) -0.0882(2) 0.81148(19)
O11A O -0.0528(4) -0.2105(3) 0.97087(19)
O12A O -0.4532(4) -0.1358(3) 0.92825(18)
O13A O -0.3016(4) -0.6281(3) 0.80486(19)
O14A O -0.2401(4) -0.1609(3) 1.23120(19)
O15A O -0.0653(4) 0.1455(3) 0.6284(2)
O16A O -0.0524(4) -0.3906(3) 0.6464(2)
O17A O -0.2294(4) -0.4626(3) 0.95040(19)
C1A C -0.2417(6) -0.5802(4) 0.8957(3)
H1A H -0.20240 -0.63980 0.92470
O18A O -0.3592(4) -0.2278(3) 1.07416(18)
O19A O 0.0471(4) -0.1909(3) 0.8392(2)
O20A O -0.6788(4) -0.5376(3) 0.75857(19)
C2A C -0.3369(5) -0.2174(3) 0.4364(3)
H2A H -0.24870 -0.27430 0.44910
C3A C 0.0807(5) -0.1354(4) 0.6494(3)
H3A H 0.17920 -0.16420 0.68470
C4A C -0.5610(5) -0.3804(4) 0.5926(3)
H4A H -0.66750 -0.37340 0.54910
C5A C -0.0477(5) -0.5119(4) 0.6257(3)
H5A H 0.05150 -0.55160 0.59050
C6A C -0.4376(5) -0.0690(4) 0.8776(3)
H6A H -0.51200 0.00370 0.89010
C7A C -0.7257(6) -0.4672(4) 0.8382(3)
H7A H -0.85790 -0.47970 0.84540
C8A C 0.0702(5) -0.1792(4) 0.9270(3)
H8A H 0.19470 -0.14270 0.96360
C9A C -0.2285(6) -0.2151(4) 1.1451(3)
H9A H -0.10960 -0.25100 1.13030
H10A H -0.090(7) 0.220(5) 0.621(3)
H11A H 0.009(9) 0.144(6) 0.672(4)
Fe3* Fe -0.58649(7) -0.45625(5) 0.28954(3)
Fe3A* Fe 0.58649(7) 0.45625(5) 0.71046(3)
O2* O -0.5020(4) -0.7320(2) 0.61703(18)
O2A* O 0.5020(4) 0.7320(2) 0.38297(18)
#END
