
#######################################################################
#
#                 Cambridge Crystallographic Data Centre
#                                CCDC
#
#######################################################################
#
# If this CIF has been generated from an entry in the Cambridge
# Structural Database, then it will include bibliographic, chemical,
# crystal, experimental, refinement or atomic coordinate data resulting
# from the CCDC's data processing and validation procedures.
#
#######################################################################

data_CSD_CIF_ZUTQAI
_audit_creation_date 2015-09-07
_audit_creation_method CSD-ConQuest-V1
_database_code_CSD ZUTQAI
_database_code_depnum_ccdc_archive 'CCDC 1402021'
_chemical_formula_sum 'C18 H30 Fe6 Mn1 N2 O40'
_chemical_formula_moiety
;
(C18 H22 Fe6 Mn1 O40 2-)n,2n(H4 N1 1+)
;
_journal_coden_Cambridge 182
_journal_volume 51
_journal_year 2015
_journal_page_first 15336
_journal_name_full 'Chem.Commun. '
loop_
_publ_author_name
"Qi-Long Wu"
"Song-De Han"
"Qing-Lun Wang"
"Jiong-Peng Zhao"
"Feng Ma"
"Xue Jiang"
"Fu-Chen Liu"
"Xian-He Bu"
_chemical_name_systematic
;
catena-[bis(ammonium) 
hexadecakis(\m-formato)-bis(\m-oxo)-diaqua-bis(formato)-hexa-iron-manganese]
;
_cell_volume   1026.339
_exptl_crystal_colour 'red'
_exptl_crystal_density_diffrn 2.111
_exptl_crystal_description 'block'
_diffrn_ambient_temperature 293
#These two values have been output from a single CSD field.
_refine_ls_R_factor_gt 0.1391
_refine_ls_wR_factor_gt 0.1391
_symmetry_cell_setting triclinic
_symmetry_space_group_name_H-M 'P -1'
_symmetry_Int_Tables_number 2
loop_
_symmetry_equiv_pos_site_id
_symmetry_equiv_pos_as_xyz
1 x,y,z
2 -x,-y,-z
_cell_length_a 6.8216(14)
_cell_length_b 10.968(2)
_cell_length_c 14.889(3)
_cell_angle_alpha 111.14(3)
_cell_angle_beta 97.28(3)
_cell_angle_gamma 92.22(3)
_cell_formula_units_Z 1
loop_
_atom_type_symbol
_atom_type_radius_bond
C 0.68
H 0.23
Fe 1.52
Mn 1.61
N 0.68
O 0.68
loop_
_atom_site_label
_atom_site_type_symbol
_atom_site_fract_x
_atom_site_fract_y
_atom_site_fract_z
O1 O 1.1428(18) 0.3956(13) 0.0877(10)
C1 C 1.092(3) 0.364(2) 0.1503(16)
H1 H 1.18680 0.33420 0.18590
Fe1 Fe 0.6636(4) 0.1978(3) 0.43036(17)
Fe2 Fe 0.8013(4) 0.2516(2) 0.23977(19)
Fe3 Fe 0.5872(4) -0.0412(2) 0.21135(18)
Mn1 Mn 0.00000 -0.50000 0.00000
O2 O 0.6777(17) 0.1338(10) 0.2914(8)
O3 O 0.8402(18) -0.0834(12) 0.1486(9)
O4 O 0.9457(19) 0.2903(15) 0.472(1)
O5 O 0.666(2) 0.4133(13) 0.3118(10)
O6 O 0.649(2) 0.2679(13) 0.5744(8)
O7 O 0.5614(19) 0.2181(14) 0.1339(9)
O8 O 0.695(2) -0.1245(13) 0.3072(10)
O9 O 0.380(2) 0.1208(17) 0.4085(11)
O10 O 0.3250(18) -0.0353(13) 0.2608(9)
O11 O 0.4442(19) 0.0127(13) 0.1042(9)
O12 O 0.950(2) 0.1114(14) 0.1490(11)
O13 O 0.4996(18) -0.2297(12) 0.1194(9)
O14 O 0.2994(18) -0.3987(12) 0.0254(9)
C2 C 0.949(3) -0.0093(17) 0.1267(12)
H2 H 1.04230 -0.04930 0.08810
O15 O 0.762(2) 0.3392(16) 0.7310(9)
O16 O -0.0613(19) -0.3449(12) 0.1357(9)
H3 H -0.03550 -0.25490 0.14230
H4 H 0.08100 -0.34170 0.15910
O17 O 0.765(2) 0.0369(15) 0.4512(11)
O18 O 0.9124(18) 0.3682(13) 0.1734(10)
C3 C 0.763(3) 0.283(2) 0.6442(17)
H5 H 0.87900 0.24300 0.63010
C4 C 0.557(3) 0.430(2) 0.3779(13)
H6 H 0.48110 0.50140 0.39010
C5 C 0.342(2) -0.2815(17) 0.0659(13)
H7 H 0.24850 -0.22630 0.05590
O19 O 1.0490(19) 0.3080(15) 0.3404(10)
C6 C 0.755(3) -0.076(2) 0.3964(14)
H8 H 0.79840 -0.13520 0.42470
C7 C 0.275(3) 0.034(2) 0.3392(14)
H9 H 0.14430 0.01810 0.34710
O20 O 0.542(2) 0.3616(13) 0.4279(10)
C8 C 1.068(3) 0.3215(19) 0.4253(15)
H10 H 1.19050 0.36070 0.46150
C9 C 0.442(3) 0.119(2) 0.0932(14)
H11 H 0.33730 0.12570 0.04900
N1 N 0.561(2) 0.5336(17) 0.1707(12)
H12 H 0.55800 0.62530 0.18190
H13 H 0.65250 0.49640 0.12650
H14 H 0.43050 0.48960 0.14310
H15 H 0.60600 0.52200 0.23760
O1A O -1.1428(18) -1.3956(13) -0.0877(10)
C1A C -1.092(3) -1.364(2) -0.1503(16)
H1A H -1.18680 -1.33420 -0.18590
Fe1A Fe -0.6636(4) -1.1978(3) -0.43036(17)
Fe2A Fe -0.8013(4) -1.2516(2) -0.23977(19)
Fe3A Fe -0.5872(4) -0.9588(2) -0.21135(18)
O2A O -0.6777(17) -1.1338(10) -0.2914(8)
O3A O -0.8402(18) -0.9166(12) -0.1486(9)
O4A O -0.9457(19) -1.2903(15) -0.472(1)
O5A O -0.666(2) -1.4133(13) -0.3118(10)
O6A O -0.649(2) -1.2679(13) -0.5744(8)
O7A O -0.5614(19) -1.2181(14) -0.1339(9)
O8A O -0.695(2) -0.8755(13) -0.3072(10)
O9A O -0.380(2) -1.1208(17) -0.4085(11)
O10A O -0.3250(18) -0.9647(13) -0.2608(9)
O11A O -0.4442(19) -1.0127(13) -0.1042(9)
O12A O -0.950(2) -1.1114(14) -0.1490(11)
O13A O -0.4996(18) -0.7703(12) -0.1194(9)
O14A O -0.2994(18) -0.6013(12) -0.0254(9)
C2A C -0.949(3) -0.9907(17) -0.1267(12)
H2A H -1.04230 -0.95070 -0.08810
O15A O -0.762(2) -1.3392(16) -0.7310(9)
O16A O 0.0613(19) -0.6551(12) -0.1357(9)
H3A H 0.03550 -0.74510 -0.14230
H4A H -0.08100 -0.65830 -0.15910
O17A O -0.765(2) -1.0369(15) -0.4512(11)
O18A O -0.9124(18) -1.3682(13) -0.1734(10)
C3A C -0.763(3) -1.283(2) -0.6442(17)
H5A H -0.87900 -1.24300 -0.63010
C4A C -0.557(3) -1.430(2) -0.3779(13)
H6A H -0.48110 -1.50140 -0.39010
C5A C -0.342(2) -0.7185(17) -0.0659(13)
H7A H -0.24850 -0.77370 -0.05590
O19A O -1.0490(19) -1.3080(15) -0.3404(10)
C6A C -0.755(3) -0.924(2) -0.3964(14)
H8A H -0.79840 -0.86480 -0.42470
C7A C -0.275(3) -1.034(2) -0.3392(14)
H9A H -0.14430 -1.01810 -0.34710
O20A O -0.542(2) -1.3616(13) -0.4279(10)
C8A C -1.068(3) -1.3215(19) -0.4253(15)
H10A H -1.19050 -1.36070 -0.46150
C9A C -0.442(3) -1.119(2) -0.0932(14)
H11A H -0.33730 -1.12570 -0.04900
O1* O 0.1428(18) -0.6044(13) 0.0877(10)
O1A* O -0.1428(18) -0.3956(13) -0.0877(10)
Mn1* Mn -1.00000 -1.50000 0.00000
Mn1** Mn 1.00000 0.50000 0.00000
#END
