
#######################################################################
#
#                 Cambridge Crystallographic Data Centre
#                                CCDC
#
#######################################################################
#
# If this CIF has been generated from an entry in the Cambridge
# Structural Database, then it will include bibliographic, chemical,
# crystal, experimental, refinement or atomic coordinate data resulting
# from the CCDC's data processing and validation procedures.
#
#######################################################################

data_CSD_CIF_ZUXVUM01
_audit_creation_date 2020-10-15
_audit_creation_method CSD-ConQuest-V1
_database_code_CSD ZUXVUM01
_database_code_depnum_ccdc_archive 'CCDC 2025571'
_chemical_formula_sum 'C15 H17 Bi3 Cu1 I12 N3'
_chemical_formula_moiety
;
0.5(C10 H10 Bi3 Cu2 I12 N2 1-)n,0.5(Bi3 I12 3-)n,2(C5 H6 N1 1+)
;
_journal_coden_Cambridge 222
_journal_volume 49
_journal_year 2020
_journal_page_first 14397
_journal_name_full 'Dalton Trans. '
loop_
_publ_author_name
"J.Mobs"
"M.Gerhard"
"J.Heine"
_chemical_name_systematic
;
catena-[bis(pyridin-1-ium) 
hemikis[decakis(\m-iodo)-bis(pyridine)-di-iodo-di-copper(i)-tri-bismuth(iii)] 
hemikis[hexakis(\m-iodo)-hexaiodo-tri-bismuth(iii)]]
;
_cell_volume   1045.576
_exptl_crystal_colour 'black'
_exptl_crystal_density_diffrn 3.895
_exptl_crystal_description 'plate'
_diffrn_ambient_temperature 293
_refine_special_details
;
Pyrdinium molecule (C10,C6,C7,C8,C9,N2) disordered by symmetry over two 
configurations with occupancy 0.5; Cu1 and H1 disordered over two sites with 
occupancies 0.5:0.5.
;
#These two values have been output from a single CSD field.
_refine_ls_R_factor_gt 0.0484
_refine_ls_wR_factor_gt 0.0484
_symmetry_cell_setting triclinic
_symmetry_space_group_name_H-M 'P -1'
_symmetry_Int_Tables_number 2
loop_
_symmetry_equiv_pos_site_id
_symmetry_equiv_pos_as_xyz
1 x,y,z
2 -x,-y,-z
_cell_length_a 9.9874(6)
_cell_length_b 10.1149(6)
_cell_length_c 11.6385(7)
_cell_angle_alpha 65.080(2)
_cell_angle_beta 78.747(2)
_cell_angle_gamma 86.282(2)
_cell_formula_units_Z 1
loop_
_atom_type_symbol
_atom_type_radius_bond
C 0.68
H 0.23
Bi 1.48
Cu 1.32
I 1.40
N 0.68
loop_
_atom_site_label
_atom_site_type_symbol
_atom_site_fract_x
_atom_site_fract_y
_atom_site_fract_z
Bi1 Bi 0.38510(6) 0.55894(6) 0.33713(6)
Bi2 Bi 0.50000 1.00000 0.00000
I1 I 0.40982(11) 0.90780(11) 0.29352(11)
I2 I 0.29976(11) 0.44577(13) 0.62965(11)
I3 I 0.49077(12) 0.67990(11) 0.03710(11)
I4 I 0.19863(11) 1.02748(14) -0.02380(12)
I5 I 0.09837(11) 0.61059(14) 0.30809(13)
I6 I 0.40164(14) 0.27207(13) 0.34290(13)
Cu1 Cu 0.1623(5) 0.8921(5) 0.2295(5)
N1 N 0.0204(12) 0.9952(15) 0.3079(13)
C1 C 0.0572(13) 1.1178(17) 0.3207(15)
H1 H 0.14890 1.14120 0.30860
C2 C -0.0431(19) 1.2055(14) 0.3516(16)
H2 H -0.01850 1.28750 0.36020
C3 C -0.1802(17) 1.1706(16) 0.3697(16)
H3 H -0.24730 1.22920 0.39040
C4 C -0.217(1) 1.0480(17) 0.3569(15)
H4 H -0.30880 1.02460 0.36900
C5 C -0.1167(14) 0.9603(13) 0.3259(14)
H5 H -0.14140 0.87830 0.31740
C6 C -0.115(3) 1.440(5) 0.015(4)
H6 H -0.20590 1.41100 0.03090
C7 C -0.011(5) 1.349(4) -0.005(5)
H7 H -0.03280 1.25950 -0.00230
C8 C 0.124(4) 1.392(5) -0.028(5)
H8 H 0.19380 1.33090 -0.04160
C9 C 0.157(3) 1.525(6) -0.032(5)
H9 H 0.24740 1.55380 -0.04770
C10 C 0.053(4) 1.616(5) -0.012(5)
H10 H 0.07430 1.70540 -0.01460
N2 N -0.083(4) 1.573(5) 0.011(4)
H11 H -0.14710 1.62940 0.02370
H12? H 0.08240 0.94100 0.28870
Bi1A Bi 0.61490(6) 0.44106(6) 0.66287(6)
I1A I 0.59018(11) 0.09220(11) 0.70648(11)
I2A I 0.70024(11) 0.55423(13) 0.37035(11)
I3A I 0.50923(12) 0.32010(11) 0.96290(11)
I4A I 0.80137(11) -0.02748(14) 1.02380(12)
I5A I 0.90163(11) 0.38941(14) 0.69191(13)
I6A I 0.59836(14) 0.72793(13) 0.65710(13)
Cu1A Cu 0.8377(5) 0.1079(5) 0.7705(5)
N1A N 0.9796(12) 0.0048(15) 0.6921(13)
C1A C 0.9428(13) -0.1178(17) 0.6793(15)
H1A H 0.85110 -0.14120 0.69140
C2A C 1.0431(19) -0.2055(14) 0.6484(16)
H2A H 1.01850 -0.28750 0.63980
C3A C 1.1802(17) -0.1706(16) 0.6303(16)
H3A H 1.24730 -0.22920 0.60960
C4A C 1.217(1) -0.0480(17) 0.6431(15)
H4A H 1.30880 -0.02460 0.63100
C5A C 1.1167(14) 0.0397(13) 0.6741(14)
H5A H 1.14140 0.12170 0.68260
Bi2* Bi 0.50000 0.00000 1.00000
I1A* I 0.59018(11) 1.09220(11) -0.29352(11)
I3A* I 0.50923(12) 1.32010(11) -0.03710(11)
I4A* I 0.80137(11) 0.97252(14) 0.02380(12)
C6A C 0.115(3) 1.560(5) -0.015(4)
H6A H 0.20590 1.58900 -0.03090
C7A C 0.011(5) 1.651(4) 0.005(5)
H7A H 0.03280 1.74050 0.00230
C8A C -0.124(4) 1.608(5) 0.028(5)
H8A H -0.19380 1.66910 0.04160
C9A C -0.157(3) 1.475(6) 0.032(5)
H9A H -0.24740 1.44620 0.04770
C10A C -0.053(4) 1.384(5) 0.012(5)
H10A H -0.07430 1.29460 0.01460
N2A N 0.083(4) 1.427(5) -0.011(4)
H11A H 0.14710 1.37060 -0.02370
#END
