
#######################################################################
#
#                 Cambridge Crystallographic Data Centre
#                                CCDC
#
#######################################################################
#
# If this CIF has been generated from an entry in the Cambridge
# Structural Database, then it will include bibliographic, chemical,
# crystal, experimental, refinement or atomic coordinate data resulting
# from the CCDC's data processing and validation procedures.
#
#######################################################################

data_CSD_CIF_ZUZGUY
_audit_creation_date 2016-01-05
_audit_creation_method CSD-ConQuest-V1
_database_code_CSD ZUZGUY
_database_code_depnum_ccdc_archive 'CCDC 1404414'
_chemical_formula_sum 'C108 H82.5 Cu5 I4 N9 O22.25 Sm2'
_chemical_formula_moiety
;
(C108 H72 Cu5 I4 N9 O18 Sm2 2-)n,2n(H3 O1 1+),2.25n(H2 O1)
;
_journal_coden_Cambridge 1220
_journal_volume 22
_journal_year 2016
_journal_page_first 2611
_journal_name_full 'Chem.-Eur.J. '
loop_
_publ_author_name
"Guo-Yu Yang"
"Wei-Hui Fang"
"Lei Zhang"
"Jian Zhang"
_chemical_name_systematic
;
catena-(bis(oxonium) 
tetrakis(\m-iodo)-nonakis(\m-4-(4-pyridyl)benzoato)-penta-copper-di-samarium 
hydrate)
;
_cell_volume  41294.728
_exptl_crystal_colour 'yellow'
_exptl_crystal_density_diffrn 1.923
_exptl_crystal_description 'tetrahedral'
_diffrn_ambient_temperature 293
_refine_special_details
;
The structure is disordered by symmetry.

;
#These two values have been output from a single CSD field.
_refine_ls_R_factor_gt 0.0608
_refine_ls_wR_factor_gt 0.0608
_symmetry_cell_setting cubic
_symmetry_space_group_name_H-M 'F 2 3'
_symmetry_Int_Tables_number 196
loop_
_symmetry_equiv_pos_site_id
_symmetry_equiv_pos_as_xyz
1 x,y,z
2 -x,-y,z
3 -x,y,-z
4 x,-y,-z
5 z,x,y
6 z,-x,-y
7 -z,-x,y
8 -z,x,-y
9 y,z,x
10 -y,z,-x
11 y,-z,-x
12 -y,-z,x
13 x,1/2+y,1/2+z
14 -x,1/2-y,1/2+z
15 -x,1/2+y,1/2-z
16 x,1/2-y,1/2-z
17 z,1/2+x,1/2+y
18 z,1/2-x,1/2-y
19 -z,1/2-x,1/2+y
20 -z,1/2+x,1/2-y
21 y,1/2+z,1/2+x
22 -y,1/2+z,1/2-x
23 y,1/2-z,1/2-x
24 -y,1/2-z,1/2+x
25 1/2+x,y,1/2+z
26 1/2-x,-y,1/2+z
27 1/2-x,y,1/2-z
28 1/2+x,-y,1/2-z
29 1/2+z,x,1/2+y
30 1/2+z,-x,1/2-y
31 1/2-z,-x,1/2+y
32 1/2-z,x,1/2-y
33 1/2+y,z,1/2+x
34 1/2-y,z,1/2-x
35 1/2+y,-z,1/2-x
36 1/2-y,-z,1/2+x
37 1/2+x,1/2+y,z
38 1/2-x,1/2-y,z
39 1/2-x,1/2+y,-z
40 1/2+x,1/2-y,-z
41 1/2+z,1/2+x,y
42 1/2+z,1/2-x,-y
43 1/2-z,1/2-x,y
44 1/2-z,1/2+x,-y
45 1/2+y,1/2+z,x
46 1/2-y,1/2+z,-x
47 1/2+y,1/2-z,-x
48 1/2-y,1/2-z,x
_cell_length_a 34.5646(4)
_cell_length_b 34.5646(4)
_cell_length_c 34.5646(4)
_cell_angle_alpha 90
_cell_angle_beta 90
_cell_angle_gamma 90
_cell_formula_units_Z 16
loop_
_atom_type_symbol
_atom_type_radius_bond
C 0.68
H 0.23
Cu 1.32
I 1.40
N 0.68
O 0.68
Sm 1.98
loop_
_atom_site_label
_atom_site_type_symbol
_atom_site_fract_x
_atom_site_fract_y
_atom_site_fract_z
Sm1 Sm 0.81906(2) 0.31906(2) 0.31906(2)
Cu1 Cu 0.83591(7) 0.16409(7) 0.66409(7)
Cu2 Cu 0.7646(2) 0.16250(18) 0.7613(2)
I1 I 0.79276(3) 0.20724(3) 0.70724(3)
I2 I 0.82323(10) 0.17677(10) 0.82323(10)
C1 C 0.8471(5) 0.2900(5) 0.3919(4)
C2 C 0.8555(5) 0.2198(5) 0.4741(5)
H1 H 0.85390 0.19330 0.47850
C3 C 0.8527(5) 0.2341(6) 0.4361(5)
H2 H 0.84930 0.21730 0.41540
C4 C 0.8548(4) 0.2729(5) 0.4302(5)
C5 C 0.8607(5) 0.2989(6) 0.4613(5)
H3 H 0.86380 0.32520 0.45630
C6 C 0.8619(5) 0.2859(6) 0.4984(5)
H4 H 0.86350 0.30300 0.51900
C7 C 0.8608(6) 0.2442(6) 0.5048(5)
C8 C 0.8694(7) 0.1755(5) 0.5871(7)
H5 H 0.87950 0.15100 0.59160
C9 C 0.8694(7) 0.1880(6) 0.5496(6)
H6 H 0.87480 0.17140 0.52920
C10 C 0.8610(5) 0.2271(5) 0.5433(5)
C11 C 0.8517(5) 0.2491(5) 0.5773(5)
H7 H 0.84720 0.27550 0.57510
C12 C 0.8495(5) 0.2323(6) 0.6123(6)
H8 H 0.84300 0.24740 0.63360
C13 C 0.75000 0.3534(6) 0.25000
C14 C 0.75000 0.3975(7) 0.25000
C15 C 0.7156(4) 0.4188(5) 0.2434(5)
H9 H 0.69260 0.40600 0.23790
C16 C 0.7165(5) 0.4584(5) 0.2453(5)
H10 H 0.69310 0.47160 0.24320
C17 C 0.75000 0.4803(6) 0.25000
C18 C 0.75000 0.5218(7) 0.25000
C19 C 0.7834(8) 0.5440(6) 0.2510(11)
H11 H 0.80710 0.53120 0.25030
C20 C 0.7838(10) 0.5817(10) 0.2530(19)
H12 H 0.80740 0.59410 0.25650
N1 N 0.8562(4) 0.1947(5) 0.6176(4)
N2 N 0.75000 0.6043(10) 0.25000
O1 O 0.8487(4) 0.2686(4) 0.3629(3)
O2 O 0.8377(3) 0.3242(3) 0.3884(3)
O3 O 0.7766(3) 0.3368(3) 0.2666(3)
Sm2 Sm 0.93116(3) 0.43116(3) 0.56884(3)
Cu3 Cu 1.01729(19) 0.08591(17) 0.48365(18)
Cu4 Cu 0.91326(7) 0.08674(7) 0.41326(7)
I3 I 1.07264(3) 0.07264(3) 0.42736(3)
I4 I 0.95704(3) 0.04296(3) 0.45704(3)
C21 C 0.9065(7) 0.4556(12) 0.6411(5)
C22 C 0.8919(7) 0.4518(7) 0.7132(7)
H13 H 0.89110 0.42510 0.70960
C23 C 0.8877(7) 0.4667(6) 0.7492(6)
H14 H 0.88450 0.45020 0.77030
C24 C 0.8881(6) 0.5065(7) 0.7547(6)
C25 C 0.8925(6) 0.5302(6) 0.7237(6)
H15 H 0.89330 0.55690 0.72710
C26 C 0.8955(6) 0.5151(7) 0.6888(6)
H16 H 0.89630 0.53210 0.66800
C27 C 0.8975(6) 0.4768(7) 0.6808(6)
C28 C 0.9002(6) 0.5183(6) 0.8630(6)
H17 H 0.90770 0.50360 0.88420
C29 C 0.8991(6) 0.5015(5) 0.8273(6)
H18 H 0.90630 0.47560 0.82500
C30 C 0.8877(5) 0.5211(5) 0.7946(5)
C31 C 0.8741(6) 0.5596(7) 0.8023(6)
H19 H 0.86260 0.57360 0.78240
C32 C 0.8777(7) 0.5767(7) 0.8390(6)
H20 H 0.87080 0.60250 0.84250
C33 C 1.00000 0.3934(7) 0.50000
C34 C 1.00000 0.3516(6) 0.50000
C35 C 1.0334(5) 0.3308(6) 0.4961(6)
H21 H 1.05660 0.34400 0.49300
C36 C 1.0339(5) 0.2916(6) 0.4965(6)
H22 H 1.05750 0.27880 0.49440
C37 C 1.00000 0.2697(8) 0.50000
C38 C 1.00000 0.2241(8) 0.50000
C39 C 0.9691(7) 0.2026(7) 0.4924(7)
H23 H 0.94580 0.21500 0.48730
C40 C 0.9697(8) 0.1640(7) 0.4918(8)
H24 H 0.94950 0.15410 0.50800
N3 N 0.8907(5) 0.5564(5) 0.8684(5)
N4 N 1.00000 0.1441(7) 0.50000
O4 O 0.9146(6) 0.4235(5) 0.6394(5)
O5 O 0.9052(5) 0.4826(5) 0.6133(4)
O6 O 0.9716(4) 0.4115(4) 0.5162(4)
O7 O 0.8808(4) 0.3808(4) 0.3808(4)
O8 O 0.0365(3) 0.5365(3) 0.4635(3)
O9 O 0.1275(3) 0.3725(3) 0.3725(3)
O10 O 0.75000 0.25000 0.25000
O11 O 0.665(3) 0.165(3) -0.835(3)
H25? H 0.12050 0.36700 0.39520
H26? H 0.12060 0.39490 0.36620
H27? H 0.11710 0.35590 0.35650
H28? H 0.01920 0.53370 0.44640
H29? H 0.03390 0.55850 0.47330
H30? H 0.72810 0.26070 0.24680
H31? H 0.64050 0.15700 -0.84990
H32? H 0.67270 0.13300 -0.85220
H33? H 0.67640 0.17280 -0.85720
H34? H 0.90280 0.36990 0.38420
H35? H 0.88350 0.36580 0.36120
C15Z C 0.7844(4) 0.4188(5) 0.2566(5)
H9Z H 0.80740 0.40600 0.26210
C16Z C 0.7835(5) 0.4584(5) 0.2547(5)
H10Z H 0.80690 0.47160 0.25680
C19Z C 0.7166(8) 0.5440(6) 0.2490(11)
H11Z H 0.69290 0.53120 0.24970
C20Z C 0.7162(10) 0.5817(10) 0.2470(19)
H12Z H 0.69260 0.59410 0.24350
O3Z O 0.7234(3) 0.3368(3) 0.2334(3)
Cu1E Cu 0.66409(7) 0.16409(7) 0.83591(7)
Cu2E Cu 0.7613(2) 0.23540(18) 0.8375(2)
I1E I 0.70724(3) 0.20724(3) 0.79276(3)
C1E C 0.3919(5) 0.1529(5) 0.7100(4)
C2E C 0.4741(5) 0.1445(5) 0.7802(5)
H1E H 0.47850 0.14610 0.80670
C3E C 0.4361(5) 0.1473(6) 0.7659(5)
H2E H 0.41540 0.15070 0.78270
C4E C 0.4302(4) 0.1452(5) 0.7271(5)
C5E C 0.4613(5) 0.1393(6) 0.7011(5)
H3E H 0.45630 0.13620 0.67480
C6E C 0.4984(5) 0.1381(6) 0.7141(5)
H4E H 0.51900 0.13650 0.69700
C7E C 0.5048(6) 0.1392(6) 0.7558(5)
C8E C 0.5871(7) 0.1306(5) 0.8245(7)
H5E H 0.59160 0.12050 0.84900
C9E C 0.5496(7) 0.1306(6) 0.8120(6)
H6E H 0.52920 0.12520 0.82860
C10E C 0.5433(5) 0.1390(5) 0.7729(5)
C11E C 0.5773(5) 0.1483(5) 0.7509(5)
H7E H 0.57510 0.15280 0.72450
C12E C 0.6123(5) 0.1505(6) 0.7677(6)
H8E H 0.63360 0.15700 0.75260
N1E N 0.6176(4) 0.1438(5) 0.8053(4)
O1E O 0.3629(4) 0.1513(4) 0.7314(3)
O2E O 0.3884(3) 0.1623(3) 0.6758(3)
Sm1F Sm 0.68094(2) 0.18094(2) 0.31906(2)
C1F C 0.6081(5) 0.1529(5) 0.2900(4)
C2F C 0.5259(5) 0.1445(5) 0.2198(5)
H1F H 0.52150 0.14610 0.19330
C3F C 0.5639(5) 0.1473(6) 0.2341(5)
H2F H 0.58460 0.15070 0.21730
C4F C 0.5698(4) 0.1452(5) 0.2729(5)
C5F C 0.5387(5) 0.1393(6) 0.2989(5)
H3F H 0.54370 0.13620 0.32520
C6F C 0.5016(5) 0.1381(6) 0.2859(5)
H4F H 0.48100 0.13650 0.30300
C7F C 0.4952(6) 0.1392(6) 0.2442(5)
C8F C 0.4129(7) 0.1306(5) 0.1755(7)
H5F H 0.40840 0.12050 0.15100
C9F C 0.4504(7) 0.1306(6) 0.1880(6)
H6F H 0.47080 0.12520 0.17140
C10F C 0.4567(5) 0.1390(5) 0.2271(5)
C11F C 0.4227(5) 0.1483(5) 0.2491(5)
H7F H 0.42490 0.15280 0.27550
C12F C 0.3877(5) 0.1505(6) 0.2323(6)
H8F H 0.36640 0.15700 0.24740
C13F C 0.75000 0.2500(6) 0.35340
C14F C 0.75000 0.2500(7) 0.39750
C15F C 0.7566(4) 0.2844(5) 0.4188(5)
H9F H 0.76210 0.30740 0.40600
C16F C 0.7547(5) 0.2835(5) 0.4584(5)
H10F H 0.75680 0.30690 0.47160
C17F C 0.75000 0.2500(6) 0.48030
C18F C 0.75000 0.2500(7) 0.52180
C19F C 0.7490(8) 0.2166(6) 0.5440(11)
H11F H 0.74970 0.19290 0.53120
C20F C 0.747(1) 0.2162(10) 0.5817(19)
H12F H 0.74350 0.19260 0.59410
N1F N 0.3824(4) 0.1438(5) 0.1947(4)
N2F N 0.75000 0.250(1) 0.60430
O1F O 0.6371(4) 0.1513(4) 0.2686(3)
O2F O 0.6116(3) 0.1623(3) 0.3242(3)
O3F O 0.7334(3) 0.2234(3) 0.3368(3)
C15NA C 0.7434(4) 0.2156(5) 0.4188(5)
H9NA H 0.73790 0.19260 0.40600
C16NA C 0.7453(5) 0.2165(5) 0.4584(5)
H10NA H 0.74320 0.19310 0.47160
C19NA C 0.7510(8) 0.2834(6) 0.5440(11)
H11NA H 0.75030 0.30710 0.53120
C20NA C 0.753(1) 0.2838(10) 0.5817(19)
H12NA H 0.75650 0.30740 0.59410
O3NA O 0.7666(3) 0.2766(3) 0.3368(3)
C13I C 0.64660 0.2500(6) 0.25000
C14I C 0.60250 0.2500(7) 0.25000
C15I C 0.5812(4) 0.2434(5) 0.2844(5)
H9I H 0.59400 0.23790 0.30740
C16I C 0.5416(5) 0.2453(5) 0.2835(5)
H10I H 0.52840 0.24320 0.30690
C17I C 0.51970 0.2500(6) 0.25000
C18I C 0.47820 0.2500(7) 0.25000
C19I C 0.4560(8) 0.2510(6) 0.2166(11)
H11I H 0.46880 0.25030 0.19290
C20I C 0.4183(10) 0.253(1) 0.2162(19)
H12I H 0.40590 0.25650 0.19260
N2I N 0.39570 0.250(1) 0.25000
O3I O 0.6632(3) 0.2666(3) 0.2234(3)
C15W C 0.5812(4) 0.2566(5) 0.2156(5)
H9W H 0.59400 0.26210 0.19260
C16W C 0.5416(5) 0.2547(5) 0.2165(5)
H10W H 0.52840 0.25680 0.19310
C19W C 0.4560(8) 0.2490(6) 0.2834(11)
H11W H 0.46880 0.24970 0.30710
C20W C 0.4183(10) 0.247(1) 0.2838(19)
H12W H 0.40590 0.24350 0.30740
O3W O 0.6632(3) 0.2334(3) 0.2766(3)
Cu2K Cu 0.8375(2) 0.23870(18) 0.7646(2)
C1FA C 0.7900(5) 0.3919(5) 0.3471(4)
C2FA C 0.7198(5) 0.4741(5) 0.3555(5)
H1FA H 0.69330 0.47850 0.35390
C3FA C 0.7341(5) 0.4361(6) 0.3527(5)
H2FA H 0.71730 0.41540 0.34930
C4FA C 0.7729(4) 0.4302(5) 0.3548(5)
C5FA C 0.7989(5) 0.4613(6) 0.3607(5)
H3FA H 0.82520 0.45630 0.36380
C6FA C 0.7859(5) 0.4984(6) 0.3619(5)
H4FA H 0.80300 0.51900 0.36350
C7FA C 0.7442(6) 0.5048(6) 0.3608(5)
C8FA C 0.6755(7) 0.5871(5) 0.3694(7)
H5FA H 0.65100 0.59160 0.37950
C9FA C 0.6880(7) 0.5496(6) 0.3694(6)
H6FA H 0.67140 0.52920 0.37480
C10FA C 0.7271(5) 0.5433(5) 0.3610(5)
C11FA C 0.7491(5) 0.5773(5) 0.3517(5)
H7FA H 0.77550 0.57510 0.34720
C12FA C 0.7323(5) 0.6123(6) 0.3495(6)
H8FA H 0.74740 0.63360 0.34300
N1FA N 0.6947(4) 0.6176(5) 0.3562(4)
O1FA O 0.7686(4) 0.3629(4) 0.3487(3)
O2FA O 0.8242(3) 0.3884(3) 0.3377(3)
C1NA C 0.8919(5) 0.3471(5) 0.2900(4)
C2NA C 0.9741(5) 0.3555(5) 0.2198(5)
H1NA H 0.97850 0.35390 0.19330
C3NA C 0.9361(5) 0.3527(6) 0.2341(5)
H2NA H 0.91540 0.34930 0.21730
C4NA C 0.9302(4) 0.3548(5) 0.2729(5)
C5NA C 0.9613(5) 0.3607(6) 0.2989(5)
H3NA H 0.95630 0.36380 0.32520
C6NA C 0.9984(5) 0.3619(6) 0.2859(5)
H4NA H 1.01900 0.36350 0.30300
C7NA C 1.0048(6) 0.3608(6) 0.2442(5)
C8NA C 1.0871(7) 0.3694(5) 0.1755(7)
H5NA H 1.09160 0.37950 0.15100
C9NA C 1.0496(7) 0.3694(6) 0.1880(6)
H6NA H 1.02920 0.37480 0.17140
C10NA C 1.0433(5) 0.3610(5) 0.2271(5)
C11NA C 1.0773(5) 0.3517(5) 0.2491(5)
H7NA H 1.07510 0.34720 0.27550
C12NA C 1.1123(5) 0.3495(6) 0.2323(6)
H8NA H 1.13360 0.34300 0.24740
N1NA N 1.1176(4) 0.3562(5) 0.1947(4)
O1NA O 0.8629(4) 0.3487(4) 0.2686(3)
O2NA O 0.8884(3) 0.3377(3) 0.3242(3)
C1U C 0.7100(5) -0.1081(5) 0.6529(4)
C2U C 0.7802(5) -0.0259(5) 0.6445(5)
H1U H 0.80670 -0.02150 0.64610
C3U C 0.7659(5) -0.0639(6) 0.6473(5)
H2U H 0.78270 -0.08460 0.65070
C4U C 0.7271(4) -0.0698(5) 0.6452(5)
C5U C 0.7011(5) -0.0387(6) 0.6393(5)
H3U H 0.67480 -0.04370 0.63620
C6U C 0.7141(5) -0.0016(6) 0.6381(5)
H4U H 0.69700 0.01900 0.63650
C7U C 0.7558(6) 0.0048(6) 0.6392(5)
C8U C 0.8245(7) 0.0871(5) 0.6306(7)
H5U H 0.84900 0.09160 0.62050
C9U C 0.8120(7) 0.0496(6) 0.6306(6)
H6U H 0.82860 0.02920 0.62520
C10U C 0.7729(5) 0.0433(5) 0.6390(5)
C11U C 0.7509(5) 0.0773(5) 0.6483(5)
H7U H 0.72450 0.07510 0.65280
C12U C 0.7677(5) 0.1123(6) 0.6505(6)
H8U H 0.75260 0.13360 0.65700
N1U N 0.8053(4) 0.1176(5) 0.6438(4)
O1U O 0.7314(4) -0.1371(4) 0.6513(3)
O2U O 0.6758(3) -0.1116(3) 0.6623(3)
Cu2Z Cu 0.7354(2) 0.16250(18) 0.7387(2)
I2Z I 0.67677(10) 0.17677(10) 0.67677(10)
Cu2U Cu 0.8375(2) 0.26130(18) 0.7354(2)
Cu2P Cu 0.7613(2) 0.26460(18) 0.6625(2)
Sm1E Sm 0.31906(2) 0.18094(2) 0.68094(2)
Sm1G Sm 0.68094(2) -0.18094(2) 0.68094(2)
Sm1I Sm 0.68094(2) 0.31906(2) 0.18094(2)
Cu1F Cu 0.33591(7) 0.16409(7) 0.16409(7)
Cu1J Cu 1.16409(7) 0.33591(7) 0.16409(7)
Cu1Q Cu 0.66409(7) 0.66409(7) 0.33591(7)
Cu2L Cu 0.7646(2) 0.66250(18) 0.2613(2)
Cu2DA Cu 0.7387(2) 0.23540(18) 0.6625(2)
Cu2HA Cu 0.6625(2) 0.23870(18) 0.7354(2)
Cu2IA Cu 0.3375(2) 0.23870(18) 0.2646(2)
Cu2LA Cu 0.7354(2) 0.66250(18) 0.2387(2)
Cu2QA Cu 0.7387(2) 0.26460(18) 0.8375(2)
Cu2RA Cu 0.6625(2) 0.26130(18) 0.7646(2)
Cu2SA Cu 0.3375(2) 0.26130(18) 0.2354(2)
I1K I 0.79276(3) 0.29276(3) 0.79276(3)
I1P I 0.70724(3) 0.29276(3) 0.70724(3)
I2O I 0.82323(10) 0.32323(10) 0.67677(10)
N1Z N 0.6438(4) 0.1947(5) 0.8824(4)
N1DA N 0.8824(4) 0.1438(5) 0.6947(4)
N1RA N 0.6947(4) 0.1176(5) 0.8562(4)
N2L N 0.75000 0.1043(10) 0.75000
N2S N 0.75000 0.250(1) 0.89570
N2GA N 0.89570 0.250(1) 0.75000
O1W O 0.7314(4) 0.1371(4) 0.3487(3)
O1KA O 0.6513(4) 0.2314(4) 0.3629(3)
O2W O 0.6758(3) 0.1116(3) 0.3377(3)
O2KA O 0.6623(3) 0.1758(3) 0.3884(3)
O3FA O 0.8368(3) 0.2666(3) 0.2766(3)
O3KA O 0.7234(3) 0.1632(3) 0.2666(3)
C35B C 0.9666(5) 0.3308(6) 0.5039(6)
H21B H 0.94340 0.34400 0.50700
C36B C 0.9661(5) 0.2916(6) 0.5035(6)
H22B H 0.94250 0.27880 0.50560
C39B C 1.0309(7) 0.2026(7) 0.5076(7)
H23B H 1.05420 0.21500 0.51270
C40B C 1.0303(8) 0.1640(7) 0.5082(8)
H24B H 1.05050 0.15410 0.49200
O6B O 1.0284(4) 0.4115(4) 0.4838(4)
Sm2B Sm 1.06884(3) 0.43116(3) 0.43116(3)
Cu3B Cu 0.98271(19) 0.08591(17) 0.51635(18)
Cu4B Cu 1.08674(7) 0.08674(7) 0.58674(7)
I3B I 0.92736(3) 0.07264(3) 0.57264(3)
I4B I 1.04296(3) 0.04296(3) 0.54296(3)
C21B C 1.0935(7) 0.4556(12) 0.3589(5)
C22B C 1.1081(7) 0.4518(7) 0.2868(7)
H13B H 1.10890 0.42510 0.29040
C23B C 1.1123(7) 0.4667(6) 0.2508(6)
H14B H 1.11550 0.45020 0.22970
C24B C 1.1119(6) 0.5065(7) 0.2453(6)
C25B C 1.1075(6) 0.5302(6) 0.2763(6)
H15B H 1.10670 0.55690 0.27290
C26B C 1.1045(6) 0.5151(7) 0.3112(6)
H16B H 1.10370 0.53210 0.33200
C27B C 1.1025(6) 0.4768(7) 0.3192(6)
C28B C 1.0998(6) 0.5183(6) 0.1370(6)
H17B H 1.09230 0.50360 0.11580
C29B C 1.1009(6) 0.5015(5) 0.1727(6)
H18B H 1.09370 0.47560 0.17500
C30B C 1.1123(5) 0.5211(5) 0.2054(5)
C31B C 1.1259(6) 0.5596(7) 0.1977(6)
H19B H 1.13740 0.57360 0.21760
C32B C 1.1223(7) 0.5767(7) 0.1610(6)
H20B H 1.12920 0.60250 0.15750
N3B N 1.1093(5) 0.5564(5) 0.1316(5)
O4B O 1.0854(6) 0.4235(5) 0.3606(5)
O5B O 1.0948(5) 0.4826(5) 0.3867(4)
Cu3T Cu 1.08591(19) -0.01635(17) 0.51729(18)
C33T C 1.39340 0.0000(7) 0.50000
C34T C 1.35160 0.0000(6) 0.50000
C35T C 1.3308(5) -0.0039(6) 0.5334(6)
H21T H 1.34400 -0.00700 0.55660
C36T C 1.2916(5) -0.0035(6) 0.5339(6)
H22T H 1.27880 -0.00560 0.55750
C37T C 1.26970 0.0000(8) 0.50000
C38T C 1.22410 0.0000(8) 0.50000
C39T C 1.2026(7) -0.0076(7) 0.4691(7)
H23T H 1.21500 -0.01270 0.44580
C40T C 1.1640(8) -0.0082(7) 0.4697(8)
H24T H 1.15410 0.00800 0.44950
N4T N 1.14410 0.0000(7) 0.50000
O6T O 1.4115(4) 0.0162(4) 0.4716(4)
C35V C 1.3308(5) 0.0039(6) 0.4666(6)
H21V H 1.34400 0.00700 0.44340
C36V C 1.2916(5) 0.0035(6) 0.4661(6)
H22V H 1.27880 0.00560 0.44250
C39V C 1.2026(7) 0.0076(7) 0.5309(7)
H23V H 1.21500 0.01270 0.55420
C40V C 1.1640(8) 0.0082(7) 0.5303(8)
H24V H 1.15410 -0.00800 0.55050
O6V O 1.4115(4) -0.0162(4) 0.5284(4)
Cu3U Cu 0.91409(19) -0.01635(17) 0.48271(18)
C33U C 0.60660 0.0000(7) 0.50000
C34U C 0.64840 0.0000(6) 0.50000
C35U C 0.6692(5) -0.0039(6) 0.4666(6)
H21U H 0.65600 -0.00700 0.44340
C36U C 0.7084(5) -0.0035(6) 0.4661(6)
H22U H 0.72120 -0.00560 0.44250
C37U C 0.73030 0.0000(8) 0.50000
C38U C 0.77590 0.0000(8) 0.50000
C39U C 0.7974(7) -0.0076(7) 0.5309(7)
H23U H 0.78500 -0.01270 0.55420
C40U C 0.8360(8) -0.0082(7) 0.5303(8)
H24U H 0.84590 0.00800 0.55050
N4U N 0.85590 0.0000(7) 0.50000
O6U O 0.5885(4) 0.0162(4) 0.5284(4)
C35W C 0.6692(5) 0.0039(6) 0.5334(6)
H21W H 0.65600 0.00700 0.55660
C36W C 0.7084(5) 0.0035(6) 0.5339(6)
H22W H 0.72120 0.00560 0.55750
C39W C 0.7974(7) 0.0076(7) 0.4691(7)
H23W H 0.78500 0.01270 0.44580
C40W C 0.8360(8) 0.0082(7) 0.4697(8)
H24W H 0.84590 -0.00800 0.44950
O6W O 0.5885(4) -0.0162(4) 0.4716(4)
Cu3V Cu 1.08591(19) 0.01635(17) 0.48271(18)
Cu3W Cu 0.91409(19) 0.01635(17) 0.51729(18)
C21QA C 0.8589(7) 0.4065(12) 0.5444(5)
C22QA C 0.7868(7) 0.3919(7) 0.5482(7)
H13QA H 0.79040 0.39110 0.57490
C23QA C 0.7508(7) 0.3877(6) 0.5333(6)
H14QA H 0.72970 0.38450 0.54980
C24QA C 0.7453(6) 0.3881(7) 0.4935(6)
C25QA C 0.7763(6) 0.3925(6) 0.4698(6)
H15QA H 0.77290 0.39330 0.44310
C26QA C 0.8112(6) 0.3955(7) 0.4849(6)
H16QA H 0.83200 0.39630 0.46790
C27QA C 0.8192(6) 0.3975(7) 0.5232(6)
C28QA C 0.6370(6) 0.4002(6) 0.4817(6)
H17QA H 0.61580 0.40770 0.49640
C29QA C 0.6727(6) 0.3991(5) 0.4985(6)
H18QA H 0.67500 0.40630 0.52440
C30QA C 0.7054(5) 0.3877(5) 0.4789(5)
C31QA C 0.6977(6) 0.3741(7) 0.4404(6)
H19QA H 0.71760 0.36260 0.42640
C32QA C 0.6610(7) 0.3777(7) 0.4233(6)
H20QA H 0.65750 0.37080 0.39750
N3QA N 0.6316(5) 0.3907(5) 0.4436(5)
O4QA O 0.8606(6) 0.4146(5) 0.5765(5)
O5QA O 0.8867(5) 0.4052(5) 0.5174(4)
C21HA C 0.9556(7) 0.3589(12) 0.5935(5)
C22HA C 0.9518(7) 0.2868(7) 0.6081(7)
H13HA H 0.92510 0.29040 0.60890
C23HA C 0.9667(7) 0.2508(6) 0.6123(6)
H14HA H 0.95020 0.22970 0.61550
C24HA C 1.0065(6) 0.2453(7) 0.6119(6)
C25HA C 1.0302(6) 0.2763(6) 0.6075(6)
H15HA H 1.05690 0.27290 0.60670
C26HA C 1.0151(6) 0.3112(7) 0.6045(6)
H16HA H 1.03210 0.33200 0.60370
C27HA C 0.9768(6) 0.3192(7) 0.6025(6)
C28HA C 1.0183(6) 0.1370(6) 0.5998(6)
H17HA H 1.00360 0.11580 0.59230
C29HA C 1.0015(6) 0.1727(5) 0.6009(6)
H18HA H 0.97560 0.17500 0.59370
C30HA C 1.0211(5) 0.2054(5) 0.6123(5)
C31HA C 1.0596(6) 0.1977(7) 0.6259(6)
H19HA H 1.07360 0.21760 0.63740
C32HA C 1.0767(7) 0.1610(7) 0.6223(6)
H20HA H 1.10250 0.15750 0.62920
N3HA N 1.0564(5) 0.1316(5) 0.6093(5)
O4HA O 0.9235(6) 0.3606(5) 0.5854(5)
O5HA O 0.9826(5) 0.3867(5) 0.5948(4)
C21IA C 1.0444(7) 0.3589(12) 0.4065(5)
C22IA C 1.0482(7) 0.2868(7) 0.3919(7)
H13IA H 1.07490 0.29040 0.39110
C23IA C 1.0333(7) 0.2508(6) 0.3877(6)
H14IA H 1.04980 0.22970 0.38450
C24IA C 0.9935(6) 0.2453(7) 0.3881(6)
C25IA C 0.9698(6) 0.2763(6) 0.3925(6)
H15IA H 0.94310 0.27290 0.39330
C26IA C 0.9849(6) 0.3112(7) 0.3955(6)
H16IA H 0.96790 0.33200 0.39630
C27IA C 1.0232(6) 0.3192(7) 0.3975(6)
C28IA C 0.9817(6) 0.1370(6) 0.4002(6)
H17IA H 0.99640 0.11580 0.40770
C29IA C 0.9985(6) 0.1727(5) 0.3991(6)
H18IA H 1.02440 0.17500 0.40630
C30IA C 0.9789(5) 0.2054(5) 0.3877(5)
C31IA C 0.9404(6) 0.1977(7) 0.3741(6)
H19IA H 0.92640 0.21760 0.36260
C32IA C 0.9233(7) 0.1610(7) 0.3777(6)
H20IA H 0.89750 0.15750 0.37080
N3IA N 0.9436(5) 0.1316(5) 0.3907(5)
O4IA O 1.0765(6) 0.3606(5) 0.4146(5)
O5IA O 1.0174(5) 0.3867(5) 0.4052(4)
C21L C 0.9065(7) -0.0444(12) 0.1411(5)
C22L C 0.8919(7) -0.0482(7) 0.2132(7)
H13L H 0.89110 -0.07490 0.20960
C23L C 0.8877(7) -0.0333(6) 0.2492(6)
H14L H 0.88450 -0.04980 0.27030
C24L C 0.8881(6) 0.0065(7) 0.2547(6)
C25L C 0.8925(6) 0.0302(6) 0.2237(6)
H15L H 0.89330 0.05690 0.22710
C26L C 0.8955(6) 0.0151(7) 0.1888(6)
H16L H 0.89630 0.03210 0.16800
C27L C 0.8975(6) -0.0232(7) 0.1808(6)
C28L C 0.9002(6) 0.0183(6) 0.3630(6)
H17L H 0.90770 0.00360 0.38420
C29L C 0.8991(6) 0.0015(5) 0.3273(6)
H18L H 0.90630 -0.02440 0.32500
C30L C 0.8877(5) 0.0211(5) 0.2946(5)
C31L C 0.8741(6) 0.0596(7) 0.3023(6)
H19L H 0.86260 0.07360 0.28240
C32L C 0.8777(7) 0.0767(7) 0.3390(6)
H20L H 0.87080 0.10250 0.34250
N3L N 0.8907(5) 0.0564(5) 0.3684(5)
O4L O 0.9146(6) -0.0765(5) 0.1394(5)
O5L O 0.9052(5) -0.0174(5) 0.1133(4)
Sm2D Sm 0.56884(3) -0.06884(3) 0.43116(3)
Sm2E Sm 0.56884(3) 0.06884(3) 0.56884(3)
Sm2F Sm 1.43116(3) 0.06884(3) 0.43116(3)
Sm2G Sm 1.43116(3) -0.06884(3) 0.56884(3)
Sm2L Sm 0.93116(3) -0.06884(3) 0.06884(3)
Cu3BA Cu 0.98365(19) 0.01729(17) 0.58591(18)
Cu3CA Cu 0.98365(19) -0.01729(17) 0.41409(18)
Cu3DA Cu 1.01635(19) -0.01729(17) 0.58591(18)
Cu3EA Cu 1.01635(19) 0.01729(17) 0.41409(18)
Cu4J Cu 1.08674(7) 0.58674(7) 0.08674(7)
Cu4K Cu 0.91326(7) 0.58674(7) 0.91326(7)
Cu4S Cu 0.58674(7) 0.41326(7) 0.41326(7)
I3A I 0.92736(3) -0.07264(3) 0.42736(3)
I3C I 1.07264(3) -0.07264(3) 0.57264(3)
I4A I 1.04296(3) -0.04296(3) 0.45704(3)
I4C I 0.95704(3) -0.04296(3) 0.54296(3)
N3E N 0.8684(5) 0.1093(5) 0.4436(5)
N3F N 1.1316(5) 0.1093(5) 0.5564(5)
N3N N 1.1093(5) 0.0564(5) 0.6316(5)
O4NA O 1.1394(6) 0.4146(5) 0.4235(5)
O5NA O 1.1133(5) 0.4052(5) 0.4826(4)
O6HA O 0.9115(4) 0.4838(4) 0.5284(4)
O6IA O 1.0885(4) 0.4838(4) 0.4716(4)
O6NA O 1.0162(4) 0.4716(4) 0.4115(4)
O6QA O 0.9838(4) 0.4716(4) 0.5885(4)
#END
