
#######################################################################
#
#                 Cambridge Crystallographic Data Centre
#                                CCDC
#
#######################################################################
#
# If this CIF has been generated from an entry in the Cambridge
# Structural Database, then it will include bibliographic, chemical,
# crystal, experimental, refinement or atomic coordinate data resulting
# from the CCDC's data processing and validation procedures.
#
#######################################################################

data_CSD_CIF_ZUZHAF
_audit_creation_date 2016-01-05
_audit_creation_method CSD-ConQuest-V1
_database_code_CSD ZUZHAF
_database_code_depnum_ccdc_archive 'CCDC 1404415'
_chemical_formula_sum 'C108 H82.5 Cu5 Gd2 I4 N9 O22.25'
_chemical_formula_moiety
;
(C108 H72 Cu5 Gd2 I4 N9 O18 2-)n,2n(H3 O1 1+),2.25n(H2 O1)
;
_journal_coden_Cambridge 1220
_journal_volume 22
_journal_year 2016
_journal_page_first 2611
_journal_name_full 'Chem.-Eur.J. '
loop_
_publ_author_name
"Guo-Yu Yang"
"Wei-Hui Fang"
"Lei Zhang"
"Jian Zhang"
_chemical_name_systematic
;
catena-(bis(oxonium) 
tetrakis(\m-iodo)-nonakis(\m-4-(4-pyridyl)benzoato)-penta-copper-di-gadolinium
 hydrate)
;
_cell_volume  41363.222
_exptl_crystal_colour 'yellow'
_exptl_crystal_density_diffrn 1.928
_exptl_crystal_description 'tetrahedral'
_diffrn_ambient_temperature 293
_refine_special_details
;
The structure is disordered by symmetry.

;
#These two values have been output from a single CSD field.
_refine_ls_R_factor_gt 0.0831
_refine_ls_wR_factor_gt 0.0831
_symmetry_cell_setting cubic
_symmetry_space_group_name_H-M 'F 2 3'
_symmetry_Int_Tables_number 196
loop_
_symmetry_equiv_pos_site_id
_symmetry_equiv_pos_as_xyz
1 x,y,z
2 -x,-y,z
3 -x,y,-z
4 x,-y,-z
5 z,x,y
6 z,-x,-y
7 -z,-x,y
8 -z,x,-y
9 y,z,x
10 -y,z,-x
11 y,-z,-x
12 -y,-z,x
13 x,1/2+y,1/2+z
14 -x,1/2-y,1/2+z
15 -x,1/2+y,1/2-z
16 x,1/2-y,1/2-z
17 z,1/2+x,1/2+y
18 z,1/2-x,1/2-y
19 -z,1/2-x,1/2+y
20 -z,1/2+x,1/2-y
21 y,1/2+z,1/2+x
22 -y,1/2+z,1/2-x
23 y,1/2-z,1/2-x
24 -y,1/2-z,1/2+x
25 1/2+x,y,1/2+z
26 1/2-x,-y,1/2+z
27 1/2-x,y,1/2-z
28 1/2+x,-y,1/2-z
29 1/2+z,x,1/2+y
30 1/2+z,-x,1/2-y
31 1/2-z,-x,1/2+y
32 1/2-z,x,1/2-y
33 1/2+y,z,1/2+x
34 1/2-y,z,1/2-x
35 1/2+y,-z,1/2-x
36 1/2-y,-z,1/2+x
37 1/2+x,1/2+y,z
38 1/2-x,1/2-y,z
39 1/2-x,1/2+y,-z
40 1/2+x,1/2-y,-z
41 1/2+z,1/2+x,y
42 1/2+z,1/2-x,-y
43 1/2-z,1/2-x,y
44 1/2-z,1/2+x,-y
45 1/2+y,1/2+z,x
46 1/2-y,1/2+z,-x
47 1/2+y,1/2-z,-x
48 1/2-y,1/2-z,x
_cell_length_a 34.5837(4)
_cell_length_b 34.5837(4)
_cell_length_c 34.5837(4)
_cell_angle_alpha 90
_cell_angle_beta 90
_cell_angle_gamma 90
_cell_formula_units_Z 16
loop_
_atom_type_symbol
_atom_type_radius_bond
C 0.68
H 0.23
Cu 1.32
Gd 1.96
I 1.40
N 0.68
O 0.68
loop_
_atom_site_label
_atom_site_type_symbol
_atom_site_fract_x
_atom_site_fract_y
_atom_site_fract_z
Gd1 Gd 0.81885(4) 0.31885(4) 0.31885(4)
Cu1 Cu 0.83605(9) 0.16395(9) 0.66395(9)
Cu2 Cu 0.7656(3) 0.1635(2) 0.7625(2)
I1 I 0.79279(4) 0.20721(4) 0.70721(4)
C1 C 0.8462(8) 0.2891(8) 0.3919(5)
C2 C 0.8560(8) 0.2204(8) 0.4741(8)
H1 H 0.85790 0.19410 0.47950
C3 C 0.8502(7) 0.2312(8) 0.4333(7)
H2 H 0.84580 0.21420 0.41300
C4 C 0.8526(6) 0.2744(10) 0.4303(7)
C5 C 0.8600(7) 0.2987(6) 0.4605(6)
H3 H 0.86320 0.32510 0.45660
C6 C 0.8627(7) 0.2821(7) 0.4990(7)
H4 H 0.86720 0.29800 0.52030
C7 C 0.8589(6) 0.2445(7) 0.5037(6)
C8 C 0.8662(10) 0.1755(7) 0.5856(8)
H5 H 0.87650 0.15100 0.59010
C9 C 0.8655(11) 0.1866(8) 0.5486(6)
H6 H 0.86750 0.16910 0.52830
C10 C 0.8612(7) 0.2276(7) 0.5423(7)
C11 C 0.8511(7) 0.2483(8) 0.5761(6)
H7 H 0.84430 0.27430 0.57410
C12 C 0.8510(7) 0.2307(7) 0.6121(7)
H8 H 0.84830 0.24610 0.63400
C13 C 0.75000 0.3547(8) 0.25000
C14 C 0.75000 0.3972(9) 0.25000
C15 C 0.7157(5) 0.4170(6) 0.2454(6)
H9 H 0.69260 0.40370 0.24240
C16 C 0.7162(6) 0.4569(6) 0.2453(6)
H10 H 0.69270 0.46960 0.24180
C17 C 0.75000 0.4802(9) 0.25000
C18 C 0.75000 0.5235(11) 0.25000
C19 C 0.7858(10) 0.5437(9) 0.2521(15)
H11 H 0.80960 0.53120 0.25290
C20 C 0.7819(12) 0.5858(12) 0.2530(12)
H12 H 0.80450 0.60000 0.25610
N1 N 0.8546(5) 0.1941(5) 0.6164(5)
N2 N 0.75000 0.6053(9) 0.25000
O1 O 0.8498(6) 0.2692(5) 0.3627(5)
O2 O 0.8375(5) 0.3247(5) 0.3894(5)
O3 O 0.7769(4) 0.3360(5) 0.2679(4)
I2 I 0.82289(11) 0.17711(11) 0.82289(11)
O4 O 0.8641(17) 0.1359(17) 0.8641(17)
Gd2 Gd 0.93131(4) 0.43131(4) 0.56869(4)
Cu3 Cu 1.0179(2) 0.08508(19) 0.4837(2)
Cu4 Cu 0.91291(9) 0.08709(9) 0.41291(9)
I3 I 1.07287(4) 0.07287(4) 0.42713(4)
I4 I 0.95684(4) 0.04316(4) 0.45684(4)
C21 C 0.9072(8) 0.4598(10) 0.6404(8)
C22 C 0.8880(11) 0.4497(9) 0.7127(7)
H13 H 0.88290 0.42350 0.70970
C23 C 0.8902(7) 0.4648(8) 0.7473(7)
H14 H 0.89200 0.44850 0.76860
C24 C 0.8900(8) 0.5072(9) 0.7536(8)
C25 C 0.8934(6) 0.5343(8) 0.7219(8)
H15 H 0.89400 0.56110 0.72420
C26 C 0.8958(8) 0.5135(8) 0.6867(7)
H16 H 0.89940 0.52860 0.66480
C27 C 0.8934(9) 0.4737(9) 0.6797(7)
C28 C 0.9031(8) 0.5192(9) 0.8613(9)
H17 H 0.91150 0.50460 0.88220
C29 C 0.8995(6) 0.5036(7) 0.8275(7)
H18 H 0.90540 0.47750 0.82540
C30 C 0.8874(6) 0.5229(7) 0.7937(8)
C31 C 0.8777(9) 0.5596(10) 0.7996(8)
H19 H 0.86980 0.57390 0.77820
C32 C 0.8783(9) 0.5801(9) 0.8382(8)
H20 H 0.86890 0.60490 0.84230
C33 C 1.00000 0.395(1) 0.50000
C34 C 1.00000 0.3514(8) 0.50000
C35 C 1.0329(8) 0.3275(7) 0.4964(8)
H21 H 1.05670 0.33960 0.49330
C36 C 1.0325(5) 0.2898(7) 0.4972(8)
H22 H 1.05590 0.27670 0.49560
C37 C 1.00000 0.2691(9) 0.50000
C38 C 1.00000 0.2251(11) 0.50000
C39 C 0.9698(9) 0.2026(8) 0.4936(9)
H23 H 0.94600 0.21430 0.48890
C40 C 0.9713(9) 0.1656(11) 0.4936(9)
H24 H 0.95110 0.15560 0.50980
N3 N 0.8942(7) 0.5582(7) 0.8660(5)
N4 N 1.00000 0.1441(7) 0.50000
O5 O 0.9138(6) 0.4243(6) 0.6396(4)
O6 O 0.9063(7) 0.4821(7) 0.6129(5)
O7 O 0.9724(4) 0.4127(5) 0.5184(5)
O8 O 0.8804(5) 0.3804(5) 0.3804(5)
O9 O 0.0368(3) 0.5368(3) 0.4632(3)
O10 O 0.75000 0.25000 0.25000
O11 O 0.6667(19) 0.1667(19) -0.8333(19)
H25 H 0.67850 0.17280 -0.85720
H26 H 0.67490 0.13300 -0.85220
H27? H 0.03430 0.55850 0.47330
H28? H 0.01960 0.53370 0.44640
H29? H 0.87440 0.14410 0.85650
H30? H 0.87110 0.13300 0.89520
H31? H 0.87100 0.10510 0.86620
H32? H 0.72810 0.26070 0.24680
H33? H 0.88310 0.36580 0.36120
H34? H 0.90240 0.36990 0.38420
H35? H 0.64270 0.15700 -0.84990
C15Z C 0.7843(5) 0.4170(6) 0.2546(6)
H9Z H 0.80740 0.40370 0.25760
C16Z C 0.7838(6) 0.4569(6) 0.2547(6)
H10Z H 0.80730 0.46960 0.25820
C19Z C 0.7142(10) 0.5437(9) 0.2479(15)
H11Z H 0.69040 0.53120 0.24710
C20Z C 0.7181(12) 0.5858(12) 0.2470(12)
H12Z H 0.69550 0.60000 0.24390
O3Z O 0.7231(4) 0.3360(5) 0.2321(4)
Cu1E Cu 0.66395(9) 0.16395(9) 0.83605(9)
Cu2E Cu 0.7625(3) 0.2344(2) 0.8365(2)
I1E I 0.70721(4) 0.20721(4) 0.79279(4)
C1E C 0.3919(8) 0.1538(8) 0.7109(5)
C2E C 0.4741(8) 0.1440(8) 0.7796(8)
H1E H 0.47950 0.14210 0.80590
C3E C 0.4333(7) 0.1498(8) 0.7688(7)
H2E H 0.41300 0.15420 0.78580
C4E C 0.4303(6) 0.1474(10) 0.7256(7)
C5E C 0.4605(7) 0.1400(6) 0.7013(6)
H3E H 0.45660 0.13680 0.67490
C6E C 0.4990(7) 0.1373(7) 0.7179(7)
H4E H 0.52030 0.13280 0.70200
C7E C 0.5037(6) 0.1411(7) 0.7555(6)
C8E C 0.5856(10) 0.1338(7) 0.8245(8)
H5E H 0.59010 0.12350 0.84900
C9E C 0.5486(11) 0.1345(8) 0.8134(6)
H6E H 0.52830 0.13250 0.83090
C10E C 0.5423(7) 0.1388(7) 0.7724(7)
C11E C 0.5761(7) 0.1489(8) 0.7517(6)
H7E H 0.57410 0.15570 0.72570
C12E C 0.6121(7) 0.1490(7) 0.7693(7)
H8E H 0.63400 0.15170 0.75390
N1E N 0.6164(5) 0.1454(5) 0.8059(5)
O1E O 0.3627(6) 0.1502(5) 0.7308(5)
O2E O 0.3894(5) 0.1625(5) 0.6753(5)
Gd1F Gd 0.68115(4) 0.18115(4) 0.31885(4)
C1F C 0.6081(8) 0.1538(8) 0.2891(5)
C2F C 0.5259(8) 0.1440(8) 0.2204(8)
H1F H 0.52050 0.14210 0.19410
C3F C 0.5667(7) 0.1498(8) 0.2312(7)
H2F H 0.58700 0.15420 0.21420
C4F C 0.5697(6) 0.1474(10) 0.2744(7)
C5F C 0.5395(7) 0.1400(6) 0.2987(6)
H3F H 0.54340 0.13680 0.32510
C6F C 0.5010(7) 0.1373(7) 0.2821(7)
H4F H 0.47970 0.13280 0.29800
C7F C 0.4963(6) 0.1411(7) 0.2445(6)
C8F C 0.4144(10) 0.1338(7) 0.1755(8)
H5F H 0.40990 0.12350 0.15100
C9F C 0.4514(11) 0.1345(8) 0.1866(6)
H6F H 0.47170 0.13250 0.16910
C10F C 0.4577(7) 0.1388(7) 0.2276(7)
C11F C 0.4239(7) 0.1489(8) 0.2483(6)
H7F H 0.42590 0.15570 0.27430
C12F C 0.3879(7) 0.1490(7) 0.2307(7)
H8F H 0.36600 0.15170 0.24610
C13F C 0.75000 0.2500(8) 0.35470
C14F C 0.75000 0.2500(9) 0.39720
C15F C 0.7546(5) 0.2843(6) 0.4170(6)
H9F H 0.75760 0.30740 0.40370
C16F C 0.7547(6) 0.2838(6) 0.4569(6)
H10F H 0.75820 0.30730 0.46960
C17F C 0.75000 0.2500(9) 0.48020
C18F C 0.75000 0.2500(11) 0.52350
C19F C 0.7479(10) 0.2142(9) 0.5437(15)
H11F H 0.74710 0.19040 0.53120
C20F C 0.7470(12) 0.2181(12) 0.5858(12)
H12F H 0.74390 0.19550 0.60000
N1F N 0.3836(5) 0.1454(5) 0.1941(5)
N2F N 0.75000 0.2500(9) 0.60530
O1F O 0.6373(6) 0.1502(5) 0.2692(5)
O2F O 0.6106(5) 0.1625(5) 0.3247(5)
O3F O 0.7321(4) 0.2231(5) 0.3360(4)
C15NA C 0.7454(5) 0.2157(6) 0.4170(6)
H9NA H 0.74240 0.19260 0.40370
C16NA C 0.7453(6) 0.2162(6) 0.4569(6)
H10NA H 0.74180 0.19270 0.46960
C19NA C 0.7521(10) 0.2858(9) 0.5437(15)
H11NA H 0.75290 0.30960 0.53120
C20NA C 0.7530(12) 0.2819(12) 0.5858(12)
H12NA H 0.75610 0.30450 0.60000
O3NA O 0.7679(4) 0.2769(5) 0.3360(4)
C13I C 0.64530 0.2500(8) 0.25000
C14I C 0.60280 0.2500(9) 0.25000
C15I C 0.5830(5) 0.2454(6) 0.2843(6)
H9I H 0.59630 0.24240 0.30740
C16I C 0.5431(6) 0.2453(6) 0.2838(6)
H10I H 0.53040 0.24180 0.30730
C17I C 0.51980 0.2500(9) 0.25000
C18I C 0.47650 0.2500(11) 0.25000
C19I C 0.4563(10) 0.2521(9) 0.2142(15)
H11I H 0.46880 0.25290 0.19040
C20I C 0.4142(12) 0.2530(12) 0.2181(12)
H12I H 0.40000 0.25610 0.19550
N2I N 0.39470 0.2500(9) 0.25000
O3I O 0.6640(4) 0.2679(5) 0.2231(4)
C15W C 0.5830(5) 0.2546(6) 0.2157(6)
H9W H 0.59630 0.25760 0.19260
C16W C 0.5431(6) 0.2547(6) 0.2162(6)
H10W H 0.53040 0.25820 0.19270
C19W C 0.4563(10) 0.2479(9) 0.2858(15)
H11W H 0.46880 0.24710 0.30960
C20W C 0.4142(12) 0.2470(12) 0.2819(12)
H12W H 0.40000 0.24390 0.30450
O3W O 0.6640(4) 0.2321(5) 0.2769(4)
Cu2K Cu 0.8365(3) 0.2375(2) 0.7656(2)
C1FA C 0.7891(8) 0.3919(8) 0.3462(5)
C2FA C 0.7204(8) 0.4741(8) 0.3560(8)
H1FA H 0.69410 0.47950 0.35790
C3FA C 0.7312(7) 0.4333(8) 0.3502(7)
H2FA H 0.71420 0.41300 0.34580
C4FA C 0.7744(6) 0.4303(10) 0.3526(7)
C5FA C 0.7987(7) 0.4605(6) 0.3600(6)
H3FA H 0.82510 0.45660 0.36320
C6FA C 0.7821(7) 0.4990(7) 0.3627(7)
H4FA H 0.79800 0.52030 0.36720
C7FA C 0.7445(6) 0.5037(7) 0.3589(6)
C8FA C 0.6755(10) 0.5856(7) 0.3662(8)
H5FA H 0.65100 0.59010 0.37650
C9FA C 0.6866(11) 0.5486(8) 0.3655(6)
H6FA H 0.66910 0.52830 0.36750
C10FA C 0.7276(7) 0.5423(7) 0.3612(7)
C11FA C 0.7483(7) 0.5761(8) 0.3511(6)
H7FA H 0.77430 0.57410 0.34430
C12FA C 0.7307(7) 0.6121(7) 0.3510(7)
H8FA H 0.74610 0.63400 0.34830
N1FA N 0.6941(5) 0.6164(5) 0.3546(5)
O1FA O 0.7692(6) 0.3627(5) 0.3498(5)
O2FA O 0.8247(5) 0.3894(5) 0.3375(5)
C1NA C 0.8919(8) 0.3462(8) 0.2891(5)
C2NA C 0.9741(8) 0.3560(8) 0.2204(8)
H1NA H 0.97950 0.35790 0.19410
C3NA C 0.9333(7) 0.3502(8) 0.2312(7)
H2NA H 0.91300 0.34580 0.21420
C4NA C 0.9303(6) 0.3526(10) 0.2744(7)
C5NA C 0.9605(7) 0.3600(6) 0.2987(6)
H3NA H 0.95660 0.36320 0.32510
C6NA C 0.9990(7) 0.3627(7) 0.2821(7)
H4NA H 1.02030 0.36720 0.29800
C7NA C 1.0037(6) 0.3589(7) 0.2445(6)
C8NA C 1.0856(10) 0.3662(7) 0.1755(8)
H5NA H 1.09010 0.37650 0.15100
C9NA C 1.0486(11) 0.3655(8) 0.1866(6)
H6NA H 1.02830 0.36750 0.16910
C10NA C 1.0423(7) 0.3612(7) 0.2276(7)
C11NA C 1.0761(7) 0.3511(8) 0.2483(6)
H7NA H 1.07410 0.34430 0.27430
C12NA C 1.1121(7) 0.3510(7) 0.2307(7)
H8NA H 1.13400 0.34830 0.24610
N1NA N 1.1164(5) 0.3546(5) 0.1941(5)
O1NA O 0.8627(6) 0.3498(5) 0.2692(5)
O2NA O 0.8894(5) 0.3375(5) 0.3247(5)
C1U C 0.7109(8) -0.1081(8) 0.6538(5)
C2U C 0.7796(8) -0.0259(8) 0.6440(8)
H1U H 0.80590 -0.02050 0.64210
C3U C 0.7688(7) -0.0667(8) 0.6498(7)
H2U H 0.78580 -0.08700 0.65420
C4U C 0.7256(6) -0.0697(10) 0.6474(7)
C5U C 0.7013(7) -0.0395(6) 0.6400(6)
H3U H 0.67490 -0.04340 0.63680
C6U C 0.7179(7) -0.0010(7) 0.6373(7)
H4U H 0.70200 0.02030 0.63280
C7U C 0.7555(6) 0.0037(7) 0.6411(6)
C8U C 0.8245(10) 0.0856(7) 0.6338(8)
H5U H 0.84900 0.09010 0.62350
C9U C 0.8134(11) 0.0486(8) 0.6345(6)
H6U H 0.83090 0.02830 0.63250
C10U C 0.7724(7) 0.0423(7) 0.6388(7)
C11U C 0.7517(7) 0.0761(8) 0.6489(6)
H7U H 0.72570 0.07410 0.65570
C12U C 0.7693(7) 0.1121(7) 0.6490(7)
H8U H 0.75390 0.13400 0.65170
N1U N 0.8059(5) 0.1164(5) 0.6454(5)
O1U O 0.7308(6) -0.1373(5) 0.6502(5)
O2U O 0.6753(5) -0.1106(5) 0.6625(5)
Cu2Z Cu 0.7344(3) 0.1635(2) 0.7375(2)
I2Z I 0.67711(11) 0.17711(11) 0.67711(11)
O4Z O 0.6359(17) 0.1359(17) 0.6359(17)
Cu2U Cu 0.8365(3) 0.2625(2) 0.7344(2)
Cu2P Cu 0.7625(3) 0.2656(2) 0.6635(2)
Gd1E Gd 0.31885(4) 0.18115(4) 0.68115(4)
Gd1G Gd 0.68115(4) -0.18115(4) 0.68115(4)
Gd1I Gd 0.68115(4) 0.31885(4) 0.18115(4)
Cu1F Cu 0.33605(9) 0.16395(9) 0.16395(9)
Cu1J Cu 1.16395(9) 0.33605(9) 0.16395(9)
Cu1Q Cu 0.66395(9) 0.66395(9) 0.33605(9)
Cu2L Cu 0.7656(3) 0.6635(2) 0.2625(2)
Cu2DA Cu 0.7375(3) 0.2344(2) 0.6635(2)
Cu2HA Cu 0.6635(3) 0.2375(2) 0.7344(2)
Cu2IA Cu 0.3365(3) 0.2375(2) 0.2656(2)
Cu2LA Cu 0.7344(3) 0.6635(2) 0.2375(2)
Cu2QA Cu 0.7375(3) 0.2656(2) 0.8365(2)
Cu2RA Cu 0.6635(3) 0.2625(2) 0.7656(2)
Cu2SA Cu 0.3365(3) 0.2625(2) 0.2344(2)
I1K I 0.79279(4) 0.29279(4) 0.79279(4)
I1P I 0.70721(4) 0.29279(4) 0.70721(4)
N1Z N 0.6454(5) 0.1941(5) 0.8836(5)
N1DA N 0.8836(5) 0.1454(5) 0.6941(5)
N1RA N 0.6941(5) 0.1164(5) 0.8546(5)
N2L N 0.75000 0.1053(9) 0.75000
N2S N 0.75000 0.2500(9) 0.89470
N2GA N 0.89470 0.2500(9) 0.75000
O1W O 0.7308(6) 0.1373(5) 0.3498(5)
O1KA O 0.6502(6) 0.2308(5) 0.3627(5)
O2W O 0.6753(5) 0.1106(5) 0.3375(5)
O2KA O 0.6625(5) 0.1753(5) 0.3894(5)
O3FA O 0.8360(4) 0.2679(5) 0.2769(4)
O3KA O 0.7231(4) 0.1640(5) 0.2679(4)
I2O I 0.82289(11) 0.32289(11) 0.67711(11)
C35B C 0.9671(8) 0.3275(7) 0.5036(8)
H21B H 0.94330 0.33960 0.50670
C36B C 0.9675(5) 0.2898(7) 0.5028(8)
H22B H 0.94410 0.27670 0.50440
C39B C 1.0302(9) 0.2026(8) 0.5064(9)
H23B H 1.05400 0.21430 0.51110
C40B C 1.0287(9) 0.1656(11) 0.5064(9)
H24B H 1.04890 0.15560 0.49020
O7B O 1.0276(4) 0.4127(5) 0.4816(5)
Gd2B Gd 1.06869(4) 0.43131(4) 0.43131(4)
Cu3B Cu 0.9821(2) 0.08508(19) 0.5163(2)
Cu4B Cu 1.08709(9) 0.08709(9) 0.58709(9)
I3B I 0.92713(4) 0.07287(4) 0.57287(4)
I4B I 1.04316(4) 0.04316(4) 0.54316(4)
C21B C 1.0928(8) 0.4598(10) 0.3596(8)
C22B C 1.1120(11) 0.4497(9) 0.2873(7)
H13B H 1.11710 0.42350 0.29030
C23B C 1.1098(7) 0.4648(8) 0.2527(7)
H14B H 1.10800 0.44850 0.23140
C24B C 1.1100(8) 0.5072(9) 0.2464(8)
C25B C 1.1066(6) 0.5343(8) 0.2781(8)
H15B H 1.10600 0.56110 0.27580
C26B C 1.1042(8) 0.5135(8) 0.3133(7)
H16B H 1.10060 0.52860 0.33520
C27B C 1.1066(9) 0.4737(9) 0.3203(7)
C28B C 1.0969(8) 0.5192(9) 0.1387(9)
H17B H 1.08850 0.50460 0.11780
C29B C 1.1005(6) 0.5036(7) 0.1725(7)
H18B H 1.09460 0.47750 0.17460
C30B C 1.1126(6) 0.5229(7) 0.2063(8)
C31B C 1.1223(9) 0.5596(10) 0.2004(8)
H19B H 1.13020 0.57390 0.22180
C32B C 1.1217(9) 0.5801(9) 0.1618(8)
H20B H 1.13110 0.60490 0.15770
N3B N 1.1058(7) 0.5582(7) 0.1340(5)
O5B O 1.0862(6) 0.4243(6) 0.3604(4)
O6B O 1.0937(7) 0.4821(7) 0.3871(5)
Cu3T Cu 1.08508(20) -0.01630(19) 0.5179(2)
C33T C 1.39500 0.000(1) 0.50000
C34T C 1.35140 0.0000(8) 0.50000
C35T C 1.3275(8) -0.0036(7) 0.5329(8)
H21T H 1.33960 -0.00670 0.55670
C36T C 1.2898(5) -0.0028(7) 0.5325(8)
H22T H 1.27670 -0.00440 0.55590
C37T C 1.26910 0.0000(9) 0.50000
C38T C 1.22510 0.0000(11) 0.50000
C39T C 1.2026(9) -0.0064(8) 0.4698(9)
H23T H 1.21430 -0.01110 0.44600
C40T C 1.1656(9) -0.0064(11) 0.4713(9)
H24T H 1.15560 0.00980 0.45110
N4T N 1.14410 0.0000(7) 0.50000
O7T O 1.4127(4) 0.0184(5) 0.4724(5)
C35V C 1.3275(8) 0.0036(7) 0.4671(8)
H21V H 1.33960 0.00670 0.44330
C36V C 1.2898(5) 0.0028(7) 0.4675(8)
H22V H 1.27670 0.00440 0.44410
C39V C 1.2026(9) 0.0064(8) 0.5302(9)
H23V H 1.21430 0.01110 0.55400
C40V C 1.1656(9) 0.0064(11) 0.5287(9)
H24V H 1.15560 -0.00980 0.54890
O7V O 1.4127(4) -0.0184(5) 0.5276(5)
Cu3U Cu 0.91492(20) -0.01630(19) 0.4821(2)
C33U C 0.60500 0.000(1) 0.50000
C34U C 0.64860 0.0000(8) 0.50000
C35U C 0.6725(8) -0.0036(7) 0.4671(8)
H21U H 0.66040 -0.00670 0.44330
C36U C 0.7102(5) -0.0028(7) 0.4675(8)
H22U H 0.72330 -0.00440 0.44410
C37U C 0.73090 0.0000(9) 0.50000
C38U C 0.77490 0.0000(11) 0.50000
C39U C 0.7974(9) -0.0064(8) 0.5302(9)
H23U H 0.78570 -0.01110 0.55400
C40U C 0.8344(9) -0.0064(11) 0.5287(9)
H24U H 0.84440 0.00980 0.54890
N4U N 0.85590 0.0000(7) 0.50000
O7U O 0.5873(4) 0.0184(5) 0.5276(5)
C35W C 0.6725(8) 0.0036(7) 0.5329(8)
H21W H 0.66040 0.00670 0.55670
C36W C 0.7102(5) 0.0028(7) 0.5325(8)
H22W H 0.72330 0.00440 0.55590
C39W C 0.7974(9) 0.0064(8) 0.4698(9)
H23W H 0.78570 0.01110 0.44600
C40W C 0.8344(9) 0.0064(11) 0.4713(9)
H24W H 0.84440 -0.00980 0.45110
O7W O 0.5873(4) -0.0184(5) 0.4724(5)
Cu3V Cu 1.08508(20) 0.01630(19) 0.4821(2)
Cu3W Cu 0.91492(20) 0.01630(19) 0.5179(2)
C21QA C 0.8596(8) 0.4072(10) 0.5402(8)
C22QA C 0.7873(11) 0.3880(9) 0.5503(7)
H13QA H 0.79030 0.38290 0.57650
C23QA C 0.7527(7) 0.3902(8) 0.5352(7)
H14QA H 0.73140 0.39200 0.55150
C24QA C 0.7464(8) 0.3900(9) 0.4928(8)
C25QA C 0.7781(6) 0.3934(8) 0.4657(8)
H15QA H 0.77580 0.39400 0.43890
C26QA C 0.8133(8) 0.3958(8) 0.4865(7)
H16QA H 0.83520 0.39940 0.47140
C27QA C 0.8203(9) 0.3934(9) 0.5263(7)
C28QA C 0.6387(8) 0.4031(9) 0.4808(9)
H17QA H 0.61780 0.41150 0.49540
C29QA C 0.6725(6) 0.3995(7) 0.4964(7)
H18QA H 0.67460 0.40540 0.52250
C30QA C 0.7063(6) 0.3874(7) 0.4771(8)
C31QA C 0.7004(9) 0.3777(10) 0.4404(8)
H19QA H 0.72180 0.36980 0.42610
C32QA C 0.6618(9) 0.3783(9) 0.4199(8)
H20QA H 0.65770 0.36890 0.39510
N3QA N 0.6340(7) 0.3942(7) 0.4418(5)
O5QA O 0.8604(6) 0.4138(6) 0.5757(4)
O6QA O 0.8871(7) 0.4063(7) 0.5179(5)
C21HA C 0.9598(8) 0.3596(10) 0.5928(8)
C22HA C 0.9497(11) 0.2873(9) 0.6120(7)
H13HA H 0.92350 0.29030 0.61710
C23HA C 0.9648(7) 0.2527(8) 0.6098(7)
H14HA H 0.94850 0.23140 0.60800
C24HA C 1.0072(8) 0.2464(9) 0.6100(8)
C25HA C 1.0343(6) 0.2781(8) 0.6066(8)
H15HA H 1.06110 0.27580 0.60600
C26HA C 1.0135(8) 0.3133(8) 0.6042(7)
H16HA H 1.02860 0.33520 0.60060
C27HA C 0.9737(9) 0.3203(9) 0.6066(7)
C28HA C 1.0192(8) 0.1387(9) 0.5969(9)
H17HA H 1.00460 0.11780 0.58850
C29HA C 1.0036(6) 0.1725(7) 0.6005(7)
H18HA H 0.97750 0.17460 0.59460
C30HA C 1.0229(6) 0.2063(7) 0.6126(8)
C31HA C 1.0596(9) 0.2004(10) 0.6223(8)
H19HA H 1.07390 0.22180 0.63020
C32HA C 1.0801(9) 0.1618(9) 0.6217(8)
H20HA H 1.10490 0.15770 0.63110
N3HA N 1.0582(7) 0.1340(7) 0.6058(5)
O5HA O 0.9243(6) 0.3604(6) 0.5862(4)
O6HA O 0.9821(7) 0.3871(7) 0.5937(5)
C21IA C 1.0402(8) 0.3596(10) 0.4072(8)
C22IA C 1.0503(11) 0.2873(9) 0.3880(7)
H13IA H 1.07650 0.29030 0.38290
C23IA C 1.0352(7) 0.2527(8) 0.3902(7)
H14IA H 1.05150 0.23140 0.39200
C24IA C 0.9928(8) 0.2464(9) 0.3900(8)
C25IA C 0.9657(6) 0.2781(8) 0.3934(8)
H15IA H 0.93890 0.27580 0.39400
C26IA C 0.9865(8) 0.3133(8) 0.3958(7)
H16IA H 0.97140 0.33520 0.39940
C27IA C 1.0263(9) 0.3203(9) 0.3934(7)
C28IA C 0.9808(8) 0.1387(9) 0.4031(9)
H17IA H 0.99540 0.11780 0.41150
C29IA C 0.9964(6) 0.1725(7) 0.3995(7)
H18IA H 1.02250 0.17460 0.40540
C30IA C 0.9771(6) 0.2063(7) 0.3874(8)
C31IA C 0.9404(9) 0.2004(10) 0.3777(8)
H19IA H 0.92610 0.22180 0.36980
C32IA C 0.9199(9) 0.1618(9) 0.3783(8)
H20IA H 0.89510 0.15770 0.36890
N3IA N 0.9418(7) 0.1340(7) 0.3942(5)
O5IA O 1.0757(6) 0.3604(6) 0.4138(4)
O6IA O 1.0179(7) 0.3871(7) 0.4063(5)
C21L C 0.9072(8) -0.0402(10) 0.1404(8)
C22L C 0.8880(11) -0.0503(9) 0.2127(7)
H13L H 0.88290 -0.07650 0.20970
C23L C 0.8902(7) -0.0352(8) 0.2473(7)
H14L H 0.89200 -0.05150 0.26860
C24L C 0.8900(8) 0.0072(9) 0.2536(8)
C25L C 0.8934(6) 0.0343(8) 0.2219(8)
H15L H 0.89400 0.06110 0.22420
C26L C 0.8958(8) 0.0135(8) 0.1867(7)
H16L H 0.89940 0.02860 0.16480
C27L C 0.8934(9) -0.0263(9) 0.1797(7)
C28L C 0.9031(8) 0.0192(9) 0.3613(9)
H17L H 0.91150 0.00460 0.38220
C29L C 0.8995(6) 0.0036(7) 0.3275(7)
H18L H 0.90540 -0.02250 0.32540
C30L C 0.8874(6) 0.0229(7) 0.2937(8)
C31L C 0.8777(9) 0.0596(10) 0.2996(8)
H19L H 0.86980 0.07390 0.27820
C32L C 0.8783(9) 0.0801(9) 0.3382(8)
H20L H 0.86890 0.10490 0.34230
N3L N 0.8942(7) 0.0582(7) 0.3660(5)
O5L O 0.9138(6) -0.0757(6) 0.1396(4)
O6L O 0.9063(7) -0.0179(7) 0.1129(5)
Gd2D Gd 0.56869(4) -0.06869(4) 0.43131(4)
Gd2E Gd 0.56869(4) 0.06869(4) 0.56869(4)
Gd2F Gd 1.43131(4) 0.06869(4) 0.43131(4)
Gd2G Gd 1.43131(4) -0.06869(4) 0.56869(4)
Gd2L Gd 0.93131(4) -0.06869(4) 0.06869(4)
Cu3BA Cu 0.9837(2) 0.01790(19) 0.58508(20)
Cu3CA Cu 0.9837(2) -0.01790(19) 0.41492(20)
Cu3DA Cu 1.0163(2) -0.01790(19) 0.58508(20)
Cu3EA Cu 1.0163(2) 0.01790(19) 0.41492(20)
Cu4J Cu 1.08709(9) 0.58709(9) 0.08709(9)
Cu4K Cu 0.91291(9) 0.58709(9) 0.91291(9)
Cu4S Cu 0.58709(9) 0.41291(9) 0.41291(9)
I3A I 0.92713(4) -0.07287(4) 0.42713(4)
I3C I 1.07287(4) -0.07287(4) 0.57287(4)
I4A I 1.04316(4) -0.04316(4) 0.45684(4)
I4C I 0.95684(4) -0.04316(4) 0.54316(4)
N3E N 0.8660(7) 0.1058(7) 0.4418(5)
N3F N 1.1340(7) 0.1058(7) 0.5582(5)
N3N N 1.1058(7) 0.0582(7) 0.6340(5)
O5NA O 1.1396(6) 0.4138(6) 0.4243(4)
O6NA O 1.1129(7) 0.4063(7) 0.4821(5)
O7HA O 0.9127(4) 0.4816(5) 0.5276(5)
O7IA O 1.0873(4) 0.4816(5) 0.4724(5)
O7NA O 1.0184(4) 0.4724(5) 0.4127(5)
O7QA O 0.9816(4) 0.4724(5) 0.5873(5)
H25FA H 0.67280 0.14280 -0.82150
H25NA H 0.64280 0.17850 -0.82720
#END
