
#######################################################################
#
#                 Cambridge Crystallographic Data Centre
#                                CCDC
#
#######################################################################
#
# If this CIF has been generated from an entry in the Cambridge
# Structural Database, then it will include bibliographic, chemical,
# crystal, experimental, refinement or atomic coordinate data resulting
# from the CCDC's data processing and validation procedures.
#
#######################################################################

data_CSD_CIF_ZZZKDE01
_audit_creation_date 2006-08-20
_audit_creation_method CSD-ConQuest-V1
_database_code_CSD ZZZKDE01
_database_code_depnum_ccdc_archive 'CCDC 283275'
_chemical_formula_sum 'C8 H20 Li2 N2 O14'
_chemical_formula_moiety
;
(H4 N1 1+)2n,n(C8 H12 Li2 O14 2-)
;
_journal_coden_Cambridge 580
_journal_volume 25
_journal_year 2006
_journal_page_first 937
_journal_name_full 'Polyhedron '
loop_
_publ_author_name
"T.Gelbrich"
"T.L.Threlfall"
"S.Huth"
"E.Seeger"
_chemical_name_systematic
;
catena-(bis(Ammonium) bis(\m~3~-tartrato)-diaqua-di-lithium)
;
_cell_volume   1567.995
_exptl_crystal_colour 'colorless'
_exptl_crystal_density_diffrn 1.619
_exptl_special_details
;
isostructural with the Li-K, Li-Rb and Li-Cs analogues

;
_exptl_crystal_description 'plate'
_diffrn_ambient_temperature 120
#These two values have been output from a single CSD field.
_refine_ls_R_factor_gt 0.0479
_refine_ls_wR_factor_gt 0.0479
_symmetry_cell_setting monoclinic
_symmetry_space_group_name_H-M 'C 2/c'
_symmetry_Int_Tables_number 15
loop_
_symmetry_equiv_pos_site_id
_symmetry_equiv_pos_as_xyz
1 x,y,z
2 1/2+x,1/2+y,z
3 -x,y,1/2-z
4 1/2-x,1/2+y,1/2-z
5 -x,-y,-z
6 -1/2-x,-1/2-y,-z
7 x,-y,-1/2+z
8 -1/2+x,-1/2-y,-1/2+z
_cell_length_a 18.3976(10)
_cell_length_b 9.6130(8)
_cell_length_c 9.7919(6)
_cell_angle_alpha 90
_cell_angle_beta 115.118(4)
_cell_angle_gamma 90
_cell_formula_units_Z 4
loop_
_atom_type_symbol
_atom_type_radius_bond
C 0.68
H 0.23
Li 0.88
N 0.68
O 0.68
loop_
_atom_site_label
_atom_site_type_symbol
_atom_site_fract_x
_atom_site_fract_y
_atom_site_fract_z
N1 N 0.00000 0.0203(4) 0.25000
H1 H 0.0364(13) 0.0739(15) 0.321(2)
H2 H 0.025(2) -0.0345(15) 0.208(4)
N2 N 0.00000 0.5037(4) 0.25000
H3 H 0.0227(16) 0.451(3) 0.333(2)
H4 H -0.0369(15) 0.560(3) 0.258(4)
Li1 Li -0.1680(2) 0.7308(5) 0.0654(5)
O1 O -0.18233(10) 0.44544(19) 0.17402(19)
O2 O -0.26067(10) 0.61966(19) 0.04337(19)
O3 O -0.39093(11) 0.5226(2) 0.0773(2)
H5 H -0.380(2) 0.6063(13) 0.087(4)
O4 O -0.34927(12) 0.3075(2) -0.0731(2)
H6 H -0.339(3) 0.232(2) -0.101(5)
O5 O -0.46153(11) 0.1815(2) -0.0091(2)
O6 O -0.40673(10) 0.24733(19) 0.23035(18)
O7 O -0.11397(12) 0.6867(2) -0.0570(2)
H7 H -0.0658(6) 0.685(4) -0.036(4)
H8 H -0.1391(14) 0.644(3) -0.135(2)
C1 C -0.24870(15) 0.5072(3) 0.1171(3)
C2 C -0.31758(15) 0.4457(3) 0.1454(3)
H9 H -0.30100 0.44140 0.25670
C3 C -0.33567(15) 0.2996(3) 0.0821(3)
H10 H -0.28750 0.24000 0.13740
C4 C -0.40703(15) 0.2378(3) 0.1018(3)
H1B H -0.0364(13) 0.0739(15) 0.179(2)
H2B H -0.025(2) -0.0345(15) 0.292(4)
H3B H -0.0227(16) 0.451(3) 0.167(2)
H4B H 0.0369(15) 0.560(3) 0.242(4)
Li1E Li -0.3320(2) 0.7692(5) -0.0654(5)
Li1C Li -0.3320(2) 0.2308(5) 0.4346(5)
Li1F Li -0.1680(2) 1.2692(5) -0.4346(5)
O1E O -0.31767(10) 1.05456(19) -0.17402(19)
O2E O -0.23933(10) 0.88034(19) -0.04337(19)
O3E O -0.10907(11) 0.9774(2) -0.0773(2)
H5E H -0.120(2) 0.8937(13) -0.087(4)
O4E O -0.15073(12) 1.1925(2) 0.0731(2)
H6E H -0.161(3) 1.268(2) 0.101(5)
O5E O -0.03847(11) 1.3185(2) 0.0091(2)
O6E O -0.09327(10) 1.25267(19) -0.23035(18)
O6C O -0.09327(10) 0.74733(19) 0.26965(18)
O6F O -0.40673(10) 0.75267(19) -0.26965(18)
O7E O -0.38603(12) 0.8133(2) 0.0570(2)
H7E H -0.4342(6) 0.815(4) 0.036(4)
H8E H -0.3609(14) 0.856(3) 0.135(2)
C1E C -0.25130(15) 0.9928(3) -0.1171(3)
C2E C -0.18242(15) 1.0543(3) -0.1454(3)
H9E H -0.19900 1.05860 -0.25670
C3E C -0.16433(15) 1.2004(3) -0.0821(3)
H10E H -0.21250 1.26000 -0.13740
C4E C -0.09297(15) 1.2622(3) -0.1018(3)
#END
